     Program PWSCF v.6.8 starts on 17Jul2025 at  5:49: 5

     R & G space division:  proc/nbgrp/npool/nimage =       4

     Reading input from AlF3.scf.in_a1_1.01

     Current dimensions of program PWSCF are:
     Max number of different atomic species (ntypx) = 10
     Max number of k-points (npk) =  40000
     Max angular momentum in pseudopotentials (lmaxx) =  4
     file Al.pbe-n-kjpaw_psl.1.0.0.UPF: wavefunction(s)  3S 3P renormalized
     file F.pbe-n-kjpaw_psl.1.0.0.UPF: wavefunction(s)  2S 2P renormalized
     Found symmetry operation: I + ( -0.3333  0.3333  0.3333)
     This is a supercell, fractional translations are disabled
     Message from routine setup:
     using ibrav=0 with symmetry is DISCOURAGED, use correct ibrav instead

     Subspace diagonalization in iterative solution of the eigenvalue problem:
     a serial algorithm will be used

     Using Slab Decomposition

     bravais-lattice index     =            0
     lattice parameter (alat)  =       9.4186  a.u.
     unit-cell volume          =    1779.4337 (a.u.)^3
     number of atoms/cell      =           24
     number of atomic types    =            2
     number of electrons       =       144.00
     number of Kohn-Sham states=           72
     kinetic-energy cutoff     =      90.0000  Ry
     charge density cutoff     =     720.0000  Ry
     scf convergence threshold =      1.0E-08
     mixing beta               =       0.7000
     number of iterations used =            8  plain     mixing
     Exchange-correlation= SLA  PW   PBX  PBC
                           (   1   4   3   4   0   0   0)

     celldm(1)=   9.418600  celldm(2)=   0.000000  celldm(3)=   0.000000
     celldm(4)=   0.000000  celldm(5)=   0.000000  celldm(6)=   0.000000

     crystal axes: (cart. coord. in units of alat)
               a(1) = (   1.000000   0.000000   0.000000 )
               a(2) = (  -0.495050   0.857451   0.000000 )
               a(3) = (   0.000000   0.000000   2.483782 )

     reciprocal axes: (cart. coord. in units 2 pi/alat)
               b(1) = (  1.000000  0.577350 -0.000000 )
               b(2) = (  0.000000  1.166248  0.000000 )
               b(3) = (  0.000000 -0.000000  0.402612 )

     PseudoPot. # 1 for Al read from file:
     ../../Pseudo/Al.pbe-n-kjpaw_psl.1.0.0.UPF
     MD5 check sum: 52edf3c3f0a11d3bd4e10b4aee4665d0
     Pseudo is Projector augmented-wave + core cor, Zval =  3.0
     Generated using &quot;atomic&quot; code by A. Dal Corso  v.6.3
     Shape of augmentation charge: PSQ
     Using radial grid of 1135 points,  6 beta functions with:
                l(1) =   0
                l(2) =   0
                l(3) =   1
                l(4) =   1
                l(5) =   2
                l(6) =   2
     Q(r) pseudized with 0 coefficients

     PseudoPot. # 2 for F  read from file:
     ../../Pseudo/F.pbe-n-kjpaw_psl.1.0.0.UPF
     MD5 check sum: 3189b5d740a3f1e0650252e1c324aeb8
     Pseudo is Projector augmented-wave + core cor, Zval =  7.0
     Generated using &quot;atomic&quot; code by A. Dal Corso  v.6.3
     Shape of augmentation charge: PSQ
     Using radial grid of 1105 points,  4 beta functions with:
                l(1) =   0
                l(2) =   0
                l(3) =   1
                l(4) =   1
     Q(r) pseudized with 0 coefficients

     atomic species   valence    mass     pseudopotential
        Al             3.00    26.98154     Al( 1.00)
        F              7.00    18.99840     F ( 1.00)

      2 Sym. Ops., with inversion, found

                                    s                        frac. trans.

      isym =  1     identity

 cryst.   s( 1) = (     1          0          0      )
                  (     0          1          0      )
                  (     0          0          1      )

 cart.    s( 1) = (  1.0000000 -0.0000000  0.0000000 )
                  (  0.0000000  1.0000000  0.0000000 )
                  (  0.0000000  0.0000000  1.0000000 )

      isym =  2     inversion

 cryst.   s( 2) = (    -1          0          0      )
                  (     0         -1          0      )
                  (     0          0         -1      )

 cart.    s( 2) = ( -1.0000000  0.0000000  0.0000000 )
                  (  0.0000000 -1.0000000  0.0000000 )
                  (  0.0000000  0.0000000 -1.0000000 )

   Cartesian axes

     site n.     atom                  positions (alat units)
         1           Al  tau(   1) = (   0.0000000   0.0000000   0.0000000  )
         2           Al  tau(   2) = (   0.0000000   0.0000000   1.2418910  )
         3           Al  tau(   3) = (   0.5016507   0.2858167   0.8279265  )
         4           Al  tau(   4) = (   0.5016507   0.2858167   2.0698175  )
         5           Al  tau(   5) = (   0.0032998   0.5716342   1.6558555  )
         6           Al  tau(   6) = (   0.0032998   0.5716342   0.4139645  )
         7           F   tau(   7) = (   0.4252100   0.0000000   0.6209455  )
         8           F   tau(   8) = (  -0.2105000   0.3645967   0.6209455  )
         9           F   tau(   9) = (   0.2902405   0.4928542   0.6209455  )
        10           F   tau(  10) = (   0.5747900   0.0000000   1.8628365  )
        11           F   tau(  11) = (  -0.2845495   0.4928542   1.8628365  )
        12           F   tau(  12) = (   0.2147100   0.3645967   1.8628365  )
        13           F   tau(  13) = (  -0.0731393   0.2858167   1.4488720  )
        14           F   tau(  14) = (   0.2911507   0.6504134   1.4488720  )
        15           F   tau(  15) = (  -0.2081088   0.7786709   1.4488720  )
        16           F   tau(  16) = (   0.0764407   0.2858167   0.2069810  )
        17           F   tau(  17) = (   0.2171012   0.7786709   0.2069810  )
        18           F   tau(  18) = (  -0.2836393   0.6504134   0.2069810  )
        19           F   tau(  19) = (   0.4285098   0.5716342   2.2768009  )
        20           F   tau(  20) = (   0.2878493   0.0787800   2.2768009  )
        21           F   tau(  21) = (   0.7885898   0.2070375   2.2768009  )
        22           F   tau(  22) = (   0.5780898   0.5716342   1.0349100  )
        23           F   tau(  23) = (   0.2137998   0.2070375   1.0349100  )
        24           F   tau(  24) = (   0.7130593   0.0787800   1.0349100  )

   Crystallographic axes

     site n.     atom                  positions (cryst. coord.)
         1           Al  tau(   1) = (  0.0000000  0.0000000  0.0000000  )
         2           Al  tau(   2) = (  0.0000000  0.0000000  0.5000000  )
         3           Al  tau(   3) = (  0.6666670  0.3333330  0.3333330  )
         4           Al  tau(   4) = (  0.6666670  0.3333330  0.8333330  )
         5           Al  tau(   5) = (  0.3333330  0.6666670  0.6666670  )
         6           Al  tau(   6) = (  0.3333330  0.6666670  0.1666670  )
         7           F   tau(   7) = (  0.4252100  0.0000000  0.2500000  )
         8           F   tau(   8) = ( -0.0000000  0.4252100  0.2500000  )
         9           F   tau(   9) = (  0.5747900  0.5747900  0.2500000  )
        10           F   tau(  10) = (  0.5747900  0.0000000  0.7500000  )
        11           F   tau(  11) = ( -0.0000000  0.5747900  0.7500000  )
        12           F   tau(  12) = (  0.4252100  0.4252100  0.7500000  )
        13           F   tau(  13) = (  0.0918770  0.3333330  0.5833330  )
        14           F   tau(  14) = (  0.6666670  0.7585430  0.5833330  )
        15           F   tau(  15) = (  0.2414570  0.9081230  0.5833330  )
        16           F   tau(  16) = (  0.2414570  0.3333330  0.0833330  )
        17           F   tau(  17) = (  0.6666670  0.9081230  0.0833330  )
        18           F   tau(  18) = (  0.0918770  0.7585430  0.0833330  )
        19           F   tau(  19) = (  0.7585430  0.6666670  0.9166670  )
        20           F   tau(  20) = (  0.3333330  0.0918770  0.9166670  )
        21           F   tau(  21) = (  0.9081230  0.2414570  0.9166670  )
        22           F   tau(  22) = (  0.9081230  0.6666670  0.4166670  )
        23           F   tau(  23) = (  0.3333330  0.2414570  0.4166670  )
        24           F   tau(  24) = (  0.7585430  0.0918770  0.4166670  )

     number of k points=    32
                       cart. coord. in units 2pi/alat
        k(    1) = (   0.1250000   0.2179497   0.0503265), wk =   0.0625000
        k(    2) = (   0.1250000   0.2179497   0.1509794), wk =   0.0625000
        k(    3) = (   0.1250000   0.5095116   0.0503265), wk =   0.0625000
        k(    4) = (   0.1250000   0.5095116   0.1509794), wk =   0.0625000
        k(    5) = (   0.1250000  -0.3651740   0.0503265), wk =   0.0625000
        k(    6) = (   0.1250000  -0.3651740   0.1509794), wk =   0.0625000
        k(    7) = (   0.1250000  -0.0736122   0.0503265), wk =   0.0625000
        k(    8) = (   0.1250000  -0.0736122   0.1509794), wk =   0.0625000
        k(    9) = (   0.3750000   0.3622873   0.0503265), wk =   0.0625000
        k(   10) = (   0.3750000   0.3622873   0.1509794), wk =   0.0625000
        k(   11) = (   0.3750000   0.6538492   0.0503265), wk =   0.0625000
        k(   12) = (   0.3750000   0.6538492   0.1509794), wk =   0.0625000
        k(   13) = (   0.3750000  -0.2208365   0.0503265), wk =   0.0625000
        k(   14) = (   0.3750000  -0.2208365   0.1509794), wk =   0.0625000
        k(   15) = (   0.3750000   0.0707254   0.0503265), wk =   0.0625000
        k(   16) = (   0.3750000   0.0707254   0.1509794), wk =   0.0625000
        k(   17) = (  -0.1250000  -0.2179497   0.0503265), wk =   0.0625000
        k(   18) = (  -0.1250000  -0.2179497   0.1509794), wk =   0.0625000
        k(   19) = (  -0.1250000  -0.5095116   0.0503265), wk =   0.0625000
        k(   20) = (  -0.1250000  -0.5095116   0.1509794), wk =   0.0625000
        k(   21) = (  -0.1250000   0.3651740   0.0503265), wk =   0.0625000
        k(   22) = (  -0.1250000   0.3651740   0.1509794), wk =   0.0625000
        k(   23) = (  -0.1250000   0.0736122   0.0503265), wk =   0.0625000
        k(   24) = (  -0.1250000   0.0736122   0.1509794), wk =   0.0625000
        k(   25) = (  -0.3750000  -0.3622873   0.0503265), wk =   0.0625000
        k(   26) = (  -0.3750000  -0.3622873   0.1509794), wk =   0.0625000
        k(   27) = (  -0.3750000  -0.6538492   0.0503265), wk =   0.0625000
        k(   28) = (  -0.3750000  -0.6538492   0.1509794), wk =   0.0625000
        k(   29) = (  -0.3750000   0.2208365   0.0503265), wk =   0.0625000
        k(   30) = (  -0.3750000   0.2208365   0.1509794), wk =   0.0625000
        k(   31) = (  -0.3750000  -0.0707254   0.0503265), wk =   0.0625000
        k(   32) = (  -0.3750000  -0.0707254   0.1509794), wk =   0.0625000

                       cryst. coord.
        k(    1) = (   0.1250000   0.1250000   0.1250000), wk =   0.0625000
        k(    2) = (   0.1250000   0.1250000   0.3750000), wk =   0.0625000
        k(    3) = (   0.1250000   0.3750000   0.1250000), wk =   0.0625000
        k(    4) = (   0.1250000   0.3750000   0.3750000), wk =   0.0625000
        k(    5) = (   0.1250000  -0.3750000   0.1250000), wk =   0.0625000
        k(    6) = (   0.1250000  -0.3750000   0.3750000), wk =   0.0625000
        k(    7) = (   0.1250000  -0.1250000   0.1250000), wk =   0.0625000
        k(    8) = (   0.1250000  -0.1250000   0.3750000), wk =   0.0625000
        k(    9) = (   0.3750000   0.1250000   0.1250000), wk =   0.0625000
        k(   10) = (   0.3750000   0.1250000   0.3750000), wk =   0.0625000
        k(   11) = (   0.3750000   0.3750000   0.1250000), wk =   0.0625000
        k(   12) = (   0.3750000   0.3750000   0.3750000), wk =   0.0625000
        k(   13) = (   0.3750000  -0.3750000   0.1250000), wk =   0.0625000
        k(   14) = (   0.3750000  -0.3750000   0.3750000), wk =   0.0625000
        k(   15) = (   0.3750000  -0.1250000   0.1250000), wk =   0.0625000
        k(   16) = (   0.3750000  -0.1250000   0.3750000), wk =   0.0625000
        k(   17) = (  -0.1250000  -0.1250000   0.1250000), wk =   0.0625000
        k(   18) = (  -0.1250000  -0.1250000   0.3750000), wk =   0.0625000
        k(   19) = (  -0.1250000  -0.3750000   0.1250000), wk =   0.0625000
        k(   20) = (  -0.1250000  -0.3750000   0.3750000), wk =   0.0625000
        k(   21) = (  -0.1250000   0.3750000   0.1250000), wk =   0.0625000
        k(   22) = (  -0.1250000   0.3750000   0.3750000), wk =   0.0625000
        k(   23) = (  -0.1250000   0.1250000   0.1250000), wk =   0.0625000
        k(   24) = (  -0.1250000   0.1250000   0.3750000), wk =   0.0625000
        k(   25) = (  -0.3750000  -0.1250000   0.1250000), wk =   0.0625000
        k(   26) = (  -0.3750000  -0.1250000   0.3750000), wk =   0.0625000
        k(   27) = (  -0.3750000  -0.3750000   0.1250000), wk =   0.0625000
        k(   28) = (  -0.3750000  -0.3750000   0.3750000), wk =   0.0625000
        k(   29) = (  -0.3750000   0.3750000   0.1250000), wk =   0.0625000
        k(   30) = (  -0.3750000   0.3750000   0.3750000), wk =   0.0625000
        k(   31) = (  -0.3750000   0.1250000   0.1250000), wk =   0.0625000
        k(   32) = (  -0.3750000   0.1250000   0.3750000), wk =   0.0625000

     Initial potential from superposition of free atoms

     starting charge  143.98625, renormalised to  144.00000
     Starting wfcs are   96 randomized atomic wfcs
     Checking if some PAW data can be deallocated...

     Self-consistent Calculation

     iteration #  1     ecut=    90.00 Ry     beta= 0.70
     Davidson diagonalization with overlap

     ethr =  1.00E-02,  avg # of iterations =  2.0

     total energy              =   -1307.84474062 Ry
     estimated scf accuracy    <       2.64979522 Ry

[...]

     total energy              =   -1309.00058807 Ry
     estimated scf accuracy    <       0.00000001 Ry

     iteration # 11     ecut=    90.00 Ry     beta= 0.70
     Davidson diagonalization with overlap

     ethr =  8.97E-12,  avg # of iterations =  2.0

     End of self-consistent calculation

          k = 0.1250 0.2179 0.0503 ( 25625 PWs)   bands (ev):

   -20.7703 -20.5835 -20.4504 -20.0703 -19.8942 -19.8175 -19.7682 -19.6959
   -19.6722 -19.6082 -19.5985 -19.5474 -19.5253 -19.4971 -19.3999 -19.3563
   -19.3405 -19.3061  -5.6690  -5.1799  -4.8756  -4.0530  -3.8246  -3.7995
    -3.5086  -3.3555  -3.2719  -3.1635  -2.9993  -2.7562  -2.5119  -2.2199
    -2.0555  -2.0475  -1.9819  -1.9420  -1.8804  -1.8203  -1.8198  -1.7364
    -1.5321  -1.5107  -1.3801  -1.1971  -1.1828  -0.9773  -0.8629  -0.5042
    -0.4074  -0.3375  -0.1818  -0.1601  -0.1575  -0.1163  -0.0538  -0.0132
    -0.0018   0.0819   0.1551   0.2046   0.2266   0.2391   0.3221   0.3439
     0.4094   0.4552   0.5009   0.5185   0.5982   0.6538   0.7631   0.8236

     occupation numbers
     1.0000   1.0000   1.0000   1.0000   1.0000   1.0000   1.0000   1.0000
     1.0000   1.0000   1.0000   1.0000   1.0000   1.0000   1.0000   1.0000
     1.0000   1.0000   1.0000   1.0000   1.0000   1.0000   1.0000   1.0000
     1.0000   1.0000   1.0000   1.0000   1.0000   1.0000   1.0000   1.0000
     1.0000   1.0000   1.0000   1.0000   1.0000   1.0000   1.0000   1.0000
     1.0000   1.0000   1.0000   1.0000   1.0000   1.0000   1.0000   1.0000
     1.0000   1.0000   1.0000   1.0000   1.0000   1.0000   1.0000   1.0000
     1.0000   1.0000   1.0000   1.0000   1.0000   1.0000   1.0000   1.0000
     1.0000   1.0000   1.0000   1.0000   1.0000   1.0000   1.0000   1.0000

[...]

          k = 0.3750 0.0707 0.1510 ( 25638 PWs)   bands (ev):

[...]

          k =-0.1250-0.2179 0.0503 ( 25625 PWs)   bands (ev):

[...]

          k =-0.3750-0.0707 0.1510 ( 25638 PWs)   bands (ev):

   -20.6206 -20.5489 -20.3020 -20.1124 -20.0324 -19.8613 -19.7629 -19.7269
   -19.6959 -19.6393 -19.5657 -19.5571 -19.5242 -19.4882 -19.4754 -19.3788
   -19.3434 -19.3374  -5.3013  -5.1403  -4.5268  -4.1179  -4.1131  -3.8171
    -3.3917  -3.1107  -3.0913  -3.0774  -2.9540  -2.8821  -2.4641  -2.2626
    -2.1799  -2.1087  -2.0234  -1.9712  -1.9600  -1.9199  -1.7018  -1.5956
    -1.4935  -1.3880  -1.3287  -1.2657  -0.9843  -0.8404  -0.8270  -0.7224
    -0.5984  -0.4264  -0.3991  -0.2995  -0.2827  -0.2747  -0.1459  -0.1288
     0.1001   0.1044   0.1421   0.1505   0.1977   0.2207   0.2623   0.2976
     0.3495   0.4092   0.4253   0.5347   0.5485   0.6051   0.6894   0.7649

     occupation numbers
     1.0000   1.0000   1.0000   1.0000   1.0000   1.0000   1.0000   1.0000
     1.0000   1.0000   1.0000   1.0000   1.0000   1.0000   1.0000   1.0000
     1.0000   1.0000   1.0000   1.0000   1.0000   1.0000   1.0000   1.0000
     1.0000   1.0000   1.0000   1.0000   1.0000   1.0000   1.0000   1.0000
     1.0000   1.0000   1.0000   1.0000   1.0000   1.0000   1.0000   1.0000
     1.0000   1.0000   1.0000   1.0000   1.0000   1.0000   1.0000   1.0000
     1.0000   1.0000   1.0000   1.0000   1.0000   1.0000   1.0000   1.0000
     1.0000   1.0000   1.0000   1.0000   1.0000   1.0000   1.0000   1.0000
     1.0000   1.0000   1.0000   1.0000   1.0000   1.0000   1.0000   1.0000

     highest occupied level (ev):     0.8539

!    total energy              =   -1309.00058808 Ry

     total all-electron energy =     -6513.286246 Ry
     estimated scf accuracy    <          2.8E-09 Ry

     The total energy is the sum of the following terms:
     one-electron contribution =    -446.88229560 Ry
     hartree contribution      =     315.34389767 Ry
     xc contribution           =    -190.69329217 Ry
     ewald contribution        =    -577.76584378 Ry
     one-center paw contrib.   =    -409.00305420 Ry
      -> PAW hartree energy AE =      14.32479408 Ry
      -> PAW hartree energy PS =     -14.30944701 Ry
      -> PAW xc energy AE      =    -221.85627291 Ry
      -> PAW xc energy PS      =      14.00376952 Ry
      -> total E_H with PAW    =     315.35924474 Ry
      -> total E_XC with PAW   =    -398.54579555 Ry

     convergence has been achieved in  11 iterations

     Writing output data file ./tmp/AlF3.save/

     General routines

     Parallel routines

     PAW routines

   This run was terminated on:   9: 7:23  17Jul2025

   JOB DONE.