     Program PWSCF v.6.8 starts on 17Jul2025 at  2:37:17

     R & G space division:  proc/nbgrp/npool/nimage =       4

     Reading input from AlF3.scf.in_a1_1.005

     Current dimensions of program PWSCF are:
     Max number of different atomic species (ntypx) = 10
     Max number of k-points (npk) =  40000
     Max angular momentum in pseudopotentials (lmaxx) =  4
     file Al.pbe-n-kjpaw_psl.1.0.0.UPF: wavefunction(s)  3S 3P renormalized
     file F.pbe-n-kjpaw_psl.1.0.0.UPF: wavefunction(s)  2S 2P renormalized
     Found symmetry operation: I + ( -0.3333  0.3333  0.3333)
     This is a supercell, fractional translations are disabled
     Message from routine setup:
     using ibrav=0 with symmetry is DISCOURAGED, use correct ibrav instead

     Subspace diagonalization in iterative solution of the eigenvalue problem:
     a serial algorithm will be used

     Using Slab Decomposition

     bravais-lattice index     =            0
     lattice parameter (alat)  =       9.3720  a.u.
     unit-cell volume          =    1770.6247 (a.u.)^3
     number of atoms/cell      =           24
     number of atomic types    =            2
     number of electrons       =       144.00
     number of Kohn-Sham states=           72
     kinetic-energy cutoff     =      90.0000  Ry
     charge density cutoff     =     720.0000  Ry
     scf convergence threshold =      1.0E-08
     mixing beta               =       0.7000
     number of iterations used =            8  plain     mixing
     Exchange-correlation= SLA  PW   PBX  PBC
                           (   1   4   3   4   0   0   0)

     celldm(1)=   9.371974  celldm(2)=   0.000000  celldm(3)=   0.000000
     celldm(4)=   0.000000  celldm(5)=   0.000000  celldm(6)=   0.000000

     crystal axes: (cart. coord. in units of alat)
               a(1) = (   1.000000   0.000000   0.000000 )
               a(2) = (  -0.497512   0.861717   0.000000 )
               a(3) = (   0.000000   0.000000   2.496139 )

     reciprocal axes: (cart. coord. in units 2 pi/alat)
               b(1) = (  1.000000  0.577350 -0.000000 )
               b(2) = (  0.000000  1.160474  0.000000 )
               b(3) = (  0.000000 -0.000000  0.400619 )

     PseudoPot. # 1 for Al read from file:
     ../../Pseudo/Al.pbe-n-kjpaw_psl.1.0.0.UPF
     MD5 check sum: 52edf3c3f0a11d3bd4e10b4aee4665d0
     Pseudo is Projector augmented-wave + core cor, Zval =  3.0
     Generated using &quot;atomic&quot; code by A. Dal Corso  v.6.3
     Shape of augmentation charge: PSQ
     Using radial grid of 1135 points,  6 beta functions with:
                l(1) =   0
                l(2) =   0
                l(3) =   1
                l(4) =   1
                l(5) =   2
                l(6) =   2
     Q(r) pseudized with 0 coefficients

     PseudoPot. # 2 for F  read from file:
     ../../Pseudo/F.pbe-n-kjpaw_psl.1.0.0.UPF
     MD5 check sum: 3189b5d740a3f1e0650252e1c324aeb8
     Pseudo is Projector augmented-wave + core cor, Zval =  7.0
     Generated using &quot;atomic&quot; code by A. Dal Corso  v.6.3
     Shape of augmentation charge: PSQ
     Using radial grid of 1105 points,  4 beta functions with:
                l(1) =   0
                l(2) =   0
                l(3) =   1
                l(4) =   1
     Q(r) pseudized with 0 coefficients

     atomic species   valence    mass     pseudopotential
        Al             3.00    26.98154     Al( 1.00)
        F              7.00    18.99840     F ( 1.00)

      2 Sym. Ops., with inversion, found

                                    s                        frac. trans.

      isym =  1     identity

 cryst.   s( 1) = (     1          0          0      )
                  (     0          1          0      )
                  (     0          0          1      )

 cart.    s( 1) = (  1.0000000  0.0000000  0.0000000 )
                  (  0.0000000  1.0000000  0.0000000 )
                  (  0.0000000  0.0000000  1.0000000 )

      isym =  2     inversion

 cryst.   s( 2) = (    -1          0          0      )
                  (     0         -1          0      )
                  (     0          0         -1      )

 cart.    s( 2) = ( -1.0000000  0.0000000  0.0000000 )
                  (  0.0000000 -1.0000000  0.0000000 )
                  (  0.0000000  0.0000000 -1.0000000 )

   Cartesian axes

     site n.     atom                  positions (alat units)
         1           Al  tau(   1) = (   0.0000000   0.0000000   0.0000000  )
         2           Al  tau(   2) = (   0.0000000   0.0000000   1.2480695  )
         3           Al  tau(   3) = (   0.5008297   0.2872387   0.8320455  )
         4           Al  tau(   4) = (   0.5008297   0.2872387   2.0801151  )
         5           Al  tau(   5) = (   0.0016579   0.5744782   1.6640935  )
         6           Al  tau(   6) = (   0.0016579   0.5744782   0.4160240  )
         7           F   tau(   7) = (   0.4252100   0.0000000   0.6240348  )
         8           F   tau(   8) = (  -0.2115473   0.3664106   0.6240348  )
         9           F   tau(   9) = (   0.2888248   0.4953062   0.6240348  )
        10           F   tau(  10) = (   0.5747900   0.0000000   1.8721043  )
        11           F   tau(  11) = (  -0.2859652   0.4953062   1.8721043  )
        12           F   tau(  12) = (   0.2136627   0.3664106   1.8721043  )
        13           F   tau(  13) = (  -0.0739603   0.2872387   1.4560803  )
        14           F   tau(  14) = (   0.2892824   0.6536493   1.4560803  )
        15           F   tau(  15) = (  -0.2103455   0.7825449   1.4560803  )
        16           F   tau(  16) = (   0.0756197   0.2872387   0.2080108  )
        17           F   tau(  17) = (   0.2148645   0.7825449   0.2080108  )
        18           F   tau(  18) = (  -0.2855076   0.6536493   0.2080108  )
        19           F   tau(  19) = (   0.4268679   0.5744782   2.2881283  )
        20           F   tau(  20) = (   0.2876230   0.0791720   2.2881283  )
        21           F   tau(  21) = (   0.7879951   0.2080676   2.2881283  )
        22           F   tau(  22) = (   0.5764479   0.5744782   1.0400588  )
        23           F   tau(  23) = (   0.2132051   0.2080676   1.0400588  )
        24           F   tau(  24) = (   0.7128330   0.0791720   1.0400588  )

   Crystallographic axes

     site n.     atom                  positions (cryst. coord.)
         1           Al  tau(   1) = (  0.0000000  0.0000000  0.0000000  )
         2           Al  tau(   2) = (  0.0000000  0.0000000  0.5000000  )
         3           Al  tau(   3) = (  0.6666670  0.3333330  0.3333330  )
         4           Al  tau(   4) = (  0.6666670  0.3333330  0.8333330  )
         5           Al  tau(   5) = (  0.3333330  0.6666670  0.6666670  )
         6           Al  tau(   6) = (  0.3333330  0.6666670  0.1666670  )
         7           F   tau(   7) = (  0.4252100  0.0000000  0.2500000  )
         8           F   tau(   8) = (  0.0000000  0.4252100  0.2500000  )
         9           F   tau(   9) = (  0.5747900  0.5747900  0.2500000  )
        10           F   tau(  10) = (  0.5747900  0.0000000  0.7500000  )
        11           F   tau(  11) = (  0.0000000  0.5747900  0.7500000  )
        12           F   tau(  12) = (  0.4252100  0.4252100  0.7500000  )
        13           F   tau(  13) = (  0.0918770  0.3333330  0.5833330  )
        14           F   tau(  14) = (  0.6666670  0.7585430  0.5833330  )
        15           F   tau(  15) = (  0.2414570  0.9081230  0.5833330  )
        16           F   tau(  16) = (  0.2414570  0.3333330  0.0833330  )
        17           F   tau(  17) = (  0.6666670  0.9081230  0.0833330  )
        18           F   tau(  18) = (  0.0918770  0.7585430  0.0833330  )
        19           F   tau(  19) = (  0.7585430  0.6666670  0.9166670  )
        20           F   tau(  20) = (  0.3333330  0.0918770  0.9166670  )
        21           F   tau(  21) = (  0.9081230  0.2414570  0.9166670  )
        22           F   tau(  22) = (  0.9081230  0.6666670  0.4166670  )
        23           F   tau(  23) = (  0.3333330  0.2414570  0.4166670  )
        24           F   tau(  24) = (  0.7585430  0.0918770  0.4166670  )

     number of k points=    32
                       cart. coord. in units 2pi/alat
        k(    1) = (   0.1250000   0.2172280   0.0500773), wk =   0.0625000
        k(    2) = (   0.1250000   0.2172280   0.1502320), wk =   0.0625000
        k(    3) = (   0.1250000   0.5073465   0.0500773), wk =   0.0625000
        k(    4) = (   0.1250000   0.5073465   0.1502320), wk =   0.0625000
        k(    5) = (   0.1250000  -0.3630090   0.0500773), wk =   0.0625000
        k(    6) = (   0.1250000  -0.3630090   0.1502320), wk =   0.0625000
        k(    7) = (   0.1250000  -0.0728905   0.0500773), wk =   0.0625000
        k(    8) = (   0.1250000  -0.0728905   0.1502320), wk =   0.0625000
        k(    9) = (   0.3750000   0.3615656   0.0500773), wk =   0.0625000
        k(   10) = (   0.3750000   0.3615656   0.1502320), wk =   0.0625000
        k(   11) = (   0.3750000   0.6516841   0.0500773), wk =   0.0625000
        k(   12) = (   0.3750000   0.6516841   0.1502320), wk =   0.0625000
        k(   13) = (   0.3750000  -0.2186714   0.0500773), wk =   0.0625000
        k(   14) = (   0.3750000  -0.2186714   0.1502320), wk =   0.0625000
        k(   15) = (   0.3750000   0.0714471   0.0500773), wk =   0.0625000
        k(   16) = (   0.3750000   0.0714471   0.1502320), wk =   0.0625000
        k(   17) = (  -0.1250000  -0.2172280   0.0500773), wk =   0.0625000
        k(   18) = (  -0.1250000  -0.2172280   0.1502320), wk =   0.0625000
        k(   19) = (  -0.1250000  -0.5073465   0.0500773), wk =   0.0625000
        k(   20) = (  -0.1250000  -0.5073465   0.1502320), wk =   0.0625000
        k(   21) = (  -0.1250000   0.3630090   0.0500773), wk =   0.0625000
        k(   22) = (  -0.1250000   0.3630090   0.1502320), wk =   0.0625000
        k(   23) = (  -0.1250000   0.0728905   0.0500773), wk =   0.0625000
        k(   24) = (  -0.1250000   0.0728905   0.1502320), wk =   0.0625000
        k(   25) = (  -0.3750000  -0.3615656   0.0500773), wk =   0.0625000
        k(   26) = (  -0.3750000  -0.3615656   0.1502320), wk =   0.0625000
        k(   27) = (  -0.3750000  -0.6516841   0.0500773), wk =   0.0625000
        k(   28) = (  -0.3750000  -0.6516841   0.1502320), wk =   0.0625000
        k(   29) = (  -0.3750000   0.2186714   0.0500773), wk =   0.0625000
        k(   30) = (  -0.3750000   0.2186714   0.1502320), wk =   0.0625000
        k(   31) = (  -0.3750000  -0.0714471   0.0500773), wk =   0.0625000
        k(   32) = (  -0.3750000  -0.0714471   0.1502320), wk =   0.0625000

                       cryst. coord.
        k(    1) = (   0.1250000   0.1250000   0.1250000), wk =   0.0625000
        k(    2) = (   0.1250000   0.1250000   0.3750000), wk =   0.0625000
        k(    3) = (   0.1250000   0.3750000   0.1250000), wk =   0.0625000
        k(    4) = (   0.1250000   0.3750000   0.3750000), wk =   0.0625000
        k(    5) = (   0.1250000  -0.3750000   0.1250000), wk =   0.0625000
        k(    6) = (   0.1250000  -0.3750000   0.3750000), wk =   0.0625000
        k(    7) = (   0.1250000  -0.1250000   0.1250000), wk =   0.0625000
        k(    8) = (   0.1250000  -0.1250000   0.3750000), wk =   0.0625000
        k(    9) = (   0.3750000   0.1250000   0.1250000), wk =   0.0625000
        k(   10) = (   0.3750000   0.1250000   0.3750000), wk =   0.0625000
        k(   11) = (   0.3750000   0.3750000   0.1250000), wk =   0.0625000
        k(   12) = (   0.3750000   0.3750000   0.3750000), wk =   0.0625000
        k(   13) = (   0.3750000  -0.3750000   0.1250000), wk =   0.0625000
        k(   14) = (   0.3750000  -0.3750000   0.3750000), wk =   0.0625000
        k(   15) = (   0.3750000  -0.1250000   0.1250000), wk =   0.0625000
        k(   16) = (   0.3750000  -0.1250000   0.3750000), wk =   0.0625000
        k(   17) = (  -0.1250000  -0.1250000   0.1250000), wk =   0.0625000
        k(   18) = (  -0.1250000  -0.1250000   0.3750000), wk =   0.0625000
        k(   19) = (  -0.1250000  -0.3750000   0.1250000), wk =   0.0625000
        k(   20) = (  -0.1250000  -0.3750000   0.3750000), wk =   0.0625000
        k(   21) = (  -0.1250000   0.3750000   0.1250000), wk =   0.0625000
        k(   22) = (  -0.1250000   0.3750000   0.3750000), wk =   0.0625000
        k(   23) = (  -0.1250000   0.1250000   0.1250000), wk =   0.0625000
        k(   24) = (  -0.1250000   0.1250000   0.3750000), wk =   0.0625000
        k(   25) = (  -0.3750000  -0.1250000   0.1250000), wk =   0.0625000
        k(   26) = (  -0.3750000  -0.1250000   0.3750000), wk =   0.0625000
        k(   27) = (  -0.3750000  -0.3750000   0.1250000), wk =   0.0625000
        k(   28) = (  -0.3750000  -0.3750000   0.3750000), wk =   0.0625000
        k(   29) = (  -0.3750000   0.3750000   0.1250000), wk =   0.0625000
        k(   30) = (  -0.3750000   0.3750000   0.3750000), wk =   0.0625000
        k(   31) = (  -0.3750000   0.1250000   0.1250000), wk =   0.0625000
        k(   32) = (  -0.3750000   0.1250000   0.3750000), wk =   0.0625000

     Initial potential from superposition of free atoms

     starting charge  143.98625, renormalised to  144.00000
     Starting wfcs are   96 randomized atomic wfcs
     Checking if some PAW data can be deallocated...

     Self-consistent Calculation

     iteration #  1     ecut=    90.00 Ry     beta= 0.70
     Davidson diagonalization with overlap

     ethr =  1.00E-02,  avg # of iterations =  2.0

     total energy              =   -1307.84411296 Ry
     estimated scf accuracy    <       2.64777092 Ry

[...]

     total energy              =   -1308.99772820 Ry
     estimated scf accuracy    <       0.00000002 Ry

     iteration # 10     ecut=    90.00 Ry     beta= 0.70
     Davidson diagonalization with overlap

     ethr =  1.61E-11,  avg # of iterations =  3.5

     End of self-consistent calculation

          k = 0.1250 0.2172 0.0501 ( 25493 PWs)   bands (ev):

   -20.7469 -20.5552 -20.4290 -20.0286 -19.8799 -19.7707 -19.7113 -19.6608
   -19.6571 -19.5800 -19.5606 -19.5207 -19.4813 -19.4759 -19.3536 -19.3155
   -19.3084 -19.2804  -5.6441  -5.1492  -4.8541  -4.0140  -3.8116  -3.7650
    -3.4789  -3.3092  -3.2514  -3.1479  -2.9702  -2.7219  -2.4641  -2.1986
    -2.0349  -2.0113  -1.9548  -1.9130  -1.8647  -1.7887  -1.7833  -1.6908
    -1.5017  -1.4816  -1.3478  -1.1758  -1.1409  -0.9307  -0.8415  -0.4736
    -0.3632  -0.2878  -0.1328  -0.1322  -0.1131  -0.0978  -0.0099   0.0363
     0.0406   0.1277   0.2038   0.2338   0.2699   0.2899   0.3522   0.3959
     0.4515   0.4940   0.5536   0.5646   0.6373   0.7082   0.8075   0.8661

     occupation numbers
     1.0000   1.0000   1.0000   1.0000   1.0000   1.0000   1.0000   1.0000
     1.0000   1.0000   1.0000   1.0000   1.0000   1.0000   1.0000   1.0000
     1.0000   1.0000   1.0000   1.0000   1.0000   1.0000   1.0000   1.0000
     1.0000   1.0000   1.0000   1.0000   1.0000   1.0000   1.0000   1.0000
     1.0000   1.0000   1.0000   1.0000   1.0000   1.0000   1.0000   1.0000
     1.0000   1.0000   1.0000   1.0000   1.0000   1.0000   1.0000   1.0000
     1.0000   1.0000   1.0000   1.0000   1.0000   1.0000   1.0000   1.0000
     1.0000   1.0000   1.0000   1.0000   1.0000   1.0000   1.0000   1.0000
     1.0000   1.0000   1.0000   1.0000   1.0000   1.0000   1.0000   1.0000

[...]

          k = 0.3750 0.0714 0.1502 ( 25519 PWs)   bands (ev):

[...]

          k =-0.1250-0.2172 0.0501 ( 25493 PWs)   bands (ev):

[...]

          k =-0.3750-0.0714 0.1502 ( 25519 PWs)   bands (ev):

   -20.5904 -20.5215 -20.2621 -20.0838 -19.9921 -19.8385 -19.7049 -19.6945
   -19.6831 -19.6104 -19.5493 -19.5286 -19.4860 -19.4691 -19.4425 -19.3315
   -19.3128 -19.2896  -5.2690  -5.1120  -4.4859  -4.0865  -4.0824  -3.7940
    -3.3455  -3.0874  -3.0584  -3.0577  -2.9235  -2.8670  -2.4317  -2.2258
    -2.1535  -2.0769  -1.9824  -1.9344  -1.9336  -1.8828  -1.6623  -1.5637
    -1.4613  -1.3631  -1.3022  -1.2242  -0.9397  -0.8066  -0.8007  -0.7017
    -0.5571  -0.3947  -0.3479  -0.2676  -0.2414  -0.2353  -0.1113  -0.0931
     0.1470   0.1531   0.1822   0.1833   0.2455   0.2621   0.2921   0.3316
     0.3914   0.4533   0.4721   0.5756   0.5832   0.6552   0.7304   0.8183

     occupation numbers
     1.0000   1.0000   1.0000   1.0000   1.0000   1.0000   1.0000   1.0000
     1.0000   1.0000   1.0000   1.0000   1.0000   1.0000   1.0000   1.0000
     1.0000   1.0000   1.0000   1.0000   1.0000   1.0000   1.0000   1.0000
     1.0000   1.0000   1.0000   1.0000   1.0000   1.0000   1.0000   1.0000
     1.0000   1.0000   1.0000   1.0000   1.0000   1.0000   1.0000   1.0000
     1.0000   1.0000   1.0000   1.0000   1.0000   1.0000   1.0000   1.0000
     1.0000   1.0000   1.0000   1.0000   1.0000   1.0000   1.0000   1.0000
     1.0000   1.0000   1.0000   1.0000   1.0000   1.0000   1.0000   1.0000
     1.0000   1.0000   1.0000   1.0000   1.0000   1.0000   1.0000   1.0000

     highest occupied level (ev):     0.8995

!    total energy              =   -1308.99772820 Ry

     total all-electron energy =     -6513.283386 Ry
     estimated scf accuracy    <          9.5E-09 Ry

     The total energy is the sum of the following terms:
     one-electron contribution =    -445.26807532 Ry
     hartree contribution      =     314.76007258 Ry
     xc contribution           =    -190.74772407 Ry
     ewald contribution        =    -578.73250803 Ry
     one-center paw contrib.   =    -409.00949337 Ry
      -> PAW hartree energy AE =      14.59450147 Ry
      -> PAW hartree energy PS =     -14.57900750 Ry
      -> PAW xc energy AE      =    -221.96881267 Ry
      -> PAW xc energy PS      =      14.10982077 Ry
      -> total E_H with PAW    =     314.77556655 Ry
      -> total E_XC with PAW   =    -398.60671597 Ry

     convergence has been achieved in  10 iterations

     Writing output data file ./tmp/AlF3.save/

     General routines

     Parallel routines

     PAW routines

   This run was terminated on:   5:49: 2  17Jul2025

   JOB DONE.