     Program PWSCF v.6.8 starts on 16Jul2025 at 19:29:20

     R & G space division:  proc/nbgrp/npool/nimage =       4

     Reading input from AlF3.scf.in_a1_0.995

     Current dimensions of program PWSCF are:
     Max number of different atomic species (ntypx) = 10
     Max number of k-points (npk) =  40000
     Max angular momentum in pseudopotentials (lmaxx) =  4
     file Al.pbe-n-kjpaw_psl.1.0.0.UPF: wavefunction(s)  3S 3P renormalized
     file F.pbe-n-kjpaw_psl.1.0.0.UPF: wavefunction(s)  2S 2P renormalized
     Found symmetry operation: I + ( -0.3333  0.3333  0.3333)
     This is a supercell, fractional translations are disabled
     Message from routine setup:
     using ibrav=0 with symmetry is DISCOURAGED, use correct ibrav instead

     Subspace diagonalization in iterative solution of the eigenvalue problem:
     a serial algorithm will be used

     Using Slab Decomposition

     bravais-lattice index     =            0
     lattice parameter (alat)  =       9.2787  a.u.
     unit-cell volume          =    1753.0065 (a.u.)^3
     number of atoms/cell      =           24
     number of atomic types    =            2
     number of electrons       =       144.00
     number of Kohn-Sham states=           72
     kinetic-energy cutoff     =      90.0000  Ry
     charge density cutoff     =     720.0000  Ry
     scf convergence threshold =      1.0E-08
     mixing beta               =       0.7000
     number of iterations used =            8  plain     mixing
     Exchange-correlation= SLA  PW   PBX  PBC
                           (   1   4   3   4   0   0   0)

     celldm(1)=   9.278720  celldm(2)=   0.000000  celldm(3)=   0.000000
     celldm(4)=   0.000000  celldm(5)=   0.000000  celldm(6)=   0.000000

     crystal axes: (cart. coord. in units of alat)
               a(1) = (   1.000000   0.000000   0.000000 )
               a(2) = (  -0.502513   0.870377   0.000000 )
               a(3) = (   0.000000   0.000000   2.521226 )

     reciprocal axes: (cart. coord. in units 2 pi/alat)
               b(1) = (  1.000000  0.577350 -0.000000 )
               b(2) = (  0.000000  1.148927  0.000000 )
               b(3) = (  0.000000 -0.000000  0.396632 )

     PseudoPot. # 1 for Al read from file:
     ../../Pseudo/Al.pbe-n-kjpaw_psl.1.0.0.UPF
     MD5 check sum: 52edf3c3f0a11d3bd4e10b4aee4665d0
     Pseudo is Projector augmented-wave + core cor, Zval =  3.0
     Generated using &quot;atomic&quot; code by A. Dal Corso  v.6.3
     Shape of augmentation charge: PSQ
     Using radial grid of 1135 points,  6 beta functions with:
                l(1) =   0
                l(2) =   0
                l(3) =   1
                l(4) =   1
                l(5) =   2
                l(6) =   2
     Q(r) pseudized with 0 coefficients

     PseudoPot. # 2 for F  read from file:
     ../../Pseudo/F.pbe-n-kjpaw_psl.1.0.0.UPF
     MD5 check sum: 3189b5d740a3f1e0650252e1c324aeb8
     Pseudo is Projector augmented-wave + core cor, Zval =  7.0
     Generated using &quot;atomic&quot; code by A. Dal Corso  v.6.3
     Shape of augmentation charge: PSQ
     Using radial grid of 1105 points,  4 beta functions with:
                l(1) =   0
                l(2) =   0
                l(3) =   1
                l(4) =   1
     Q(r) pseudized with 0 coefficients

     atomic species   valence    mass     pseudopotential
        Al             3.00    26.98154     Al( 1.00)
        F              7.00    18.99840     F ( 1.00)

      2 Sym. Ops., with inversion, found

                                    s                        frac. trans.

      isym =  1     identity

 cryst.   s( 1) = (     1          0          0      )
                  (     0          1          0      )
                  (     0          0          1      )

 cart.    s( 1) = (  1.0000000  0.0000000  0.0000000 )
                  (  0.0000000  1.0000000  0.0000000 )
                  (  0.0000000  0.0000000  1.0000000 )

      isym =  2     inversion

 cryst.   s( 2) = (    -1          0          0      )
                  (     0         -1          0      )
                  (     0          0         -1      )

 cart.    s( 2) = ( -1.0000000  0.0000000  0.0000000 )
                  (  0.0000000 -1.0000000  0.0000000 )
                  (  0.0000000  0.0000000 -1.0000000 )

   Cartesian axes

     site n.     atom                  positions (alat units)
         1           Al  tau(   1) = (   0.0000000   0.0000000   0.0000000  )
         2           Al  tau(   2) = (   0.0000000   0.0000000   1.2606129  )
         3           Al  tau(   3) = (   0.4991630   0.2901255   0.8404078  )
         4           Al  tau(   4) = (   0.4991630   0.2901255   2.1010207  )
         5           Al  tau(   5) = (  -0.0016755   0.5802518   1.6808181  )
         6           Al  tau(   6) = (  -0.0016755   0.5802518   0.4202052  )
         7           F   tau(   7) = (   0.4252100   0.0000000   0.6303065  )
         8           F   tau(   8) = (  -0.2136734   0.3700931   0.6303065  )
         9           F   tau(   9) = (   0.2859508   0.5002842   0.6303065  )
        10           F   tau(  10) = (   0.5747900   0.0000000   1.8909194  )
        11           F   tau(  11) = (  -0.2888392   0.5002842   1.8909194  )
        12           F   tau(  12) = (   0.2115366   0.3700931   1.8909194  )
        13           F   tau(  13) = (  -0.0756270   0.2901255   1.4707143  )
        14           F   tau(  14) = (   0.2854896   0.6602186   1.4707143  )
        15           F   tau(  15) = (  -0.2148862   0.7904096   1.4707143  )
        16           F   tau(  16) = (   0.0739530   0.2901255   0.2101013  )
        17           F   tau(  17) = (   0.2103238   0.7904096   0.2101013  )
        18           F   tau(  18) = (  -0.2893004   0.6602186   0.2101013  )
        19           F   tau(  19) = (   0.4235345   0.5802518   2.3111246  )
        20           F   tau(  20) = (   0.2871637   0.0799677   2.3111246  )
        21           F   tau(  21) = (   0.7867878   0.2101587   2.3111246  )
        22           F   tau(  22) = (   0.5731145   0.5802518   1.0505116  )
        23           F   tau(  23) = (   0.2119978   0.2101587   1.0505116  )
        24           F   tau(  24) = (   0.7123737   0.0799677   1.0505116  )

   Crystallographic axes

     site n.     atom                  positions (cryst. coord.)
         1           Al  tau(   1) = (  0.0000000  0.0000000  0.0000000  )
         2           Al  tau(   2) = (  0.0000000  0.0000000  0.5000000  )
         3           Al  tau(   3) = (  0.6666670  0.3333330  0.3333330  )
         4           Al  tau(   4) = (  0.6666670  0.3333330  0.8333330  )
         5           Al  tau(   5) = (  0.3333330  0.6666670  0.6666670  )
         6           Al  tau(   6) = (  0.3333330  0.6666670  0.1666670  )
         7           F   tau(   7) = (  0.4252100  0.0000000  0.2500000  )
         8           F   tau(   8) = (  0.0000000  0.4252100  0.2500000  )
         9           F   tau(   9) = (  0.5747900  0.5747900  0.2500000  )
        10           F   tau(  10) = (  0.5747900  0.0000000  0.7500000  )
        11           F   tau(  11) = ( -0.0000000  0.5747900  0.7500000  )
        12           F   tau(  12) = (  0.4252100  0.4252100  0.7500000  )
        13           F   tau(  13) = (  0.0918770  0.3333330  0.5833330  )
        14           F   tau(  14) = (  0.6666670  0.7585430  0.5833330  )
        15           F   tau(  15) = (  0.2414570  0.9081230  0.5833330  )
        16           F   tau(  16) = (  0.2414570  0.3333330  0.0833330  )
        17           F   tau(  17) = (  0.6666670  0.9081230  0.0833330  )
        18           F   tau(  18) = (  0.0918770  0.7585430  0.0833330  )
        19           F   tau(  19) = (  0.7585430  0.6666670  0.9166670  )
        20           F   tau(  20) = (  0.3333330  0.0918770  0.9166670  )
        21           F   tau(  21) = (  0.9081230  0.2414570  0.9166670  )
        22           F   tau(  22) = (  0.9081230  0.6666670  0.4166670  )
        23           F   tau(  23) = (  0.3333330  0.2414570  0.4166670  )
        24           F   tau(  24) = (  0.7585430  0.0918770  0.4166670  )

     number of k points=    32
                       cart. coord. in units 2pi/alat
        k(    1) = (   0.1250000   0.2157847   0.0495791), wk =   0.0625000
        k(    2) = (   0.1250000   0.2157847   0.1487372), wk =   0.0625000
        k(    3) = (   0.1250000   0.5030164   0.0495791), wk =   0.0625000
        k(    4) = (   0.1250000   0.5030164   0.1487372), wk =   0.0625000
        k(    5) = (   0.1250000  -0.3586789   0.0495791), wk =   0.0625000
        k(    6) = (   0.1250000  -0.3586789   0.1487372), wk =   0.0625000
        k(    7) = (   0.1250000  -0.0714471   0.0495791), wk =   0.0625000
        k(    8) = (   0.1250000  -0.0714471   0.1487372), wk =   0.0625000
        k(    9) = (   0.3750000   0.3601222   0.0495791), wk =   0.0625000
        k(   10) = (   0.3750000   0.3601222   0.1487372), wk =   0.0625000
        k(   11) = (   0.3750000   0.6473540   0.0495791), wk =   0.0625000
        k(   12) = (   0.3750000   0.6473540   0.1487372), wk =   0.0625000
        k(   13) = (   0.3750000  -0.2143413   0.0495791), wk =   0.0625000
        k(   14) = (   0.3750000  -0.2143413   0.1487372), wk =   0.0625000
        k(   15) = (   0.3750000   0.0728905   0.0495791), wk =   0.0625000
        k(   16) = (   0.3750000   0.0728905   0.1487372), wk =   0.0625000
        k(   17) = (  -0.1250000  -0.2157847   0.0495791), wk =   0.0625000
        k(   18) = (  -0.1250000  -0.2157847   0.1487372), wk =   0.0625000
        k(   19) = (  -0.1250000  -0.5030164   0.0495791), wk =   0.0625000
        k(   20) = (  -0.1250000  -0.5030164   0.1487372), wk =   0.0625000
        k(   21) = (  -0.1250000   0.3586789   0.0495791), wk =   0.0625000
        k(   22) = (  -0.1250000   0.3586789   0.1487372), wk =   0.0625000
        k(   23) = (  -0.1250000   0.0714471   0.0495791), wk =   0.0625000
        k(   24) = (  -0.1250000   0.0714471   0.1487372), wk =   0.0625000
        k(   25) = (  -0.3750000  -0.3601222   0.0495791), wk =   0.0625000
        k(   26) = (  -0.3750000  -0.3601222   0.1487372), wk =   0.0625000
        k(   27) = (  -0.3750000  -0.6473540   0.0495791), wk =   0.0625000
        k(   28) = (  -0.3750000  -0.6473540   0.1487372), wk =   0.0625000
        k(   29) = (  -0.3750000   0.2143413   0.0495791), wk =   0.0625000
        k(   30) = (  -0.3750000   0.2143413   0.1487372), wk =   0.0625000
        k(   31) = (  -0.3750000  -0.0728905   0.0495791), wk =   0.0625000
        k(   32) = (  -0.3750000  -0.0728905   0.1487372), wk =   0.0625000

                       cryst. coord.
        k(    1) = (   0.1250000   0.1250000   0.1250000), wk =   0.0625000
        k(    2) = (   0.1250000   0.1250000   0.3750000), wk =   0.0625000
        k(    3) = (   0.1250000   0.3750000   0.1250000), wk =   0.0625000
        k(    4) = (   0.1250000   0.3750000   0.3750000), wk =   0.0625000
        k(    5) = (   0.1250000  -0.3750000   0.1250000), wk =   0.0625000
        k(    6) = (   0.1250000  -0.3750000   0.3750000), wk =   0.0625000
        k(    7) = (   0.1250000  -0.1250000   0.1250000), wk =   0.0625000
        k(    8) = (   0.1250000  -0.1250000   0.3750000), wk =   0.0625000
        k(    9) = (   0.3750000   0.1250000   0.1250000), wk =   0.0625000
        k(   10) = (   0.3750000   0.1250000   0.3750000), wk =   0.0625000
        k(   11) = (   0.3750000   0.3750000   0.1250000), wk =   0.0625000
        k(   12) = (   0.3750000   0.3750000   0.3750000), wk =   0.0625000
        k(   13) = (   0.3750000  -0.3750000   0.1250000), wk =   0.0625000
        k(   14) = (   0.3750000  -0.3750000   0.3750000), wk =   0.0625000
        k(   15) = (   0.3750000  -0.1250000   0.1250000), wk =   0.0625000
        k(   16) = (   0.3750000  -0.1250000   0.3750000), wk =   0.0625000
        k(   17) = (  -0.1250000  -0.1250000   0.1250000), wk =   0.0625000
        k(   18) = (  -0.1250000  -0.1250000   0.3750000), wk =   0.0625000
        k(   19) = (  -0.1250000  -0.3750000   0.1250000), wk =   0.0625000
        k(   20) = (  -0.1250000  -0.3750000   0.3750000), wk =   0.0625000
        k(   21) = (  -0.1250000   0.3750000   0.1250000), wk =   0.0625000
        k(   22) = (  -0.1250000   0.3750000   0.3750000), wk =   0.0625000
        k(   23) = (  -0.1250000   0.1250000   0.1250000), wk =   0.0625000
        k(   24) = (  -0.1250000   0.1250000   0.3750000), wk =   0.0625000
        k(   25) = (  -0.3750000  -0.1250000   0.1250000), wk =   0.0625000
        k(   26) = (  -0.3750000  -0.1250000   0.3750000), wk =   0.0625000
        k(   27) = (  -0.3750000  -0.3750000   0.1250000), wk =   0.0625000
        k(   28) = (  -0.3750000  -0.3750000   0.3750000), wk =   0.0625000
        k(   29) = (  -0.3750000   0.3750000   0.1250000), wk =   0.0625000
        k(   30) = (  -0.3750000   0.3750000   0.3750000), wk =   0.0625000
        k(   31) = (  -0.3750000   0.1250000   0.1250000), wk =   0.0625000
        k(   32) = (  -0.3750000   0.1250000   0.3750000), wk =   0.0625000

     Initial potential from superposition of free atoms

     starting charge  143.98625, renormalised to  144.00000
     Starting wfcs are   96 randomized atomic wfcs
     Checking if some PAW data can be deallocated...

     Self-consistent Calculation

     iteration #  1     ecut=    90.00 Ry     beta= 0.70
     Davidson diagonalization with overlap

     ethr =  1.00E-02,  avg # of iterations =  2.0

     total energy              =   -1307.83907891 Ry
     estimated scf accuracy    <       2.64619952 Ry

[...]

     total energy              =   -1308.98940647 Ry
     estimated scf accuracy    <       0.00000006 Ry

     iteration # 10     ecut=    90.00 Ry     beta= 0.70
     Davidson diagonalization with overlap

     ethr =  4.24E-11,  avg # of iterations =  2.3

     End of self-consistent calculation

          k = 0.1250 0.2158 0.0496 ( 25252 PWs)   bands (ev):

   -20.7014 -20.5006 -20.3883 -19.9500 -19.8549 -19.6931 -19.6232 -19.5952
   -19.5945 -19.5188 -19.4618 -19.4609 -19.4292 -19.3889 -19.2659 -19.2621
   -19.2184 -19.2097  -5.5938  -5.0878  -4.8108  -3.9368  -3.7856  -3.6973
    -3.4194  -3.2163  -3.2062  -3.1145  -2.9091  -2.6514  -2.3674  -2.1541
    -2.0013  -1.9380  -1.9006  -1.8476  -1.8312  -1.7240  -1.7124  -1.6007
    -1.4403  -1.4177  -1.2833  -1.1290  -1.0558  -0.8358  -0.8003  -0.4133
    -0.2752  -0.1857  -0.0812  -0.0647  -0.0240  -0.0218   0.0820   0.1296
     0.1304   0.2252   0.2850   0.3131   0.3602   0.3950   0.4217   0.5024
     0.5391   0.5747   0.6589   0.6629   0.7197   0.8191   0.8990   0.9557

     occupation numbers
     1.0000   1.0000   1.0000   1.0000   1.0000   1.0000   1.0000   1.0000
     1.0000   1.0000   1.0000   1.0000   1.0000   1.0000   1.0000   1.0000
     1.0000   1.0000   1.0000   1.0000   1.0000   1.0000   1.0000   1.0000
     1.0000   1.0000   1.0000   1.0000   1.0000   1.0000   1.0000   1.0000
     1.0000   1.0000   1.0000   1.0000   1.0000   1.0000   1.0000   1.0000
     1.0000   1.0000   1.0000   1.0000   1.0000   1.0000   1.0000   1.0000
     1.0000   1.0000   1.0000   1.0000   1.0000   1.0000   1.0000   1.0000
     1.0000   1.0000   1.0000   1.0000   1.0000   1.0000   1.0000   1.0000
     1.0000   1.0000   1.0000   1.0000   1.0000   1.0000   1.0000   1.0000

[...]

          k = 0.3750 0.0729 0.1487 ( 25271 PWs)   bands (ev):

[...]

          k =-0.1250-0.2158 0.0496 ( 25252 PWs)   bands (ev):

[...]

          k =-0.3750-0.0729 0.1487 ( 25271 PWs)   bands (ev):

   -20.5311 -20.4684 -20.1835 -20.0318 -19.9143 -19.7957 -19.6613 -19.6220
   -19.5872 -19.5671 -19.5117 -19.4506 -19.4284 -19.4127 -19.3682 -19.2417
   -19.2340 -19.1904  -5.2036  -5.0547  -4.4034  -4.0340  -4.0108  -3.7472
    -3.2526  -3.0433  -3.0183  -2.9912  -2.8579  -2.8331  -2.3632  -2.1523
    -2.1046  -2.0067  -1.8995  -1.8834  -1.8579  -1.8051  -1.5853  -1.5000
    -1.3957  -1.3128  -1.2446  -1.1379  -0.8496  -0.7652  -0.7188  -0.6592
    -0.4720  -0.3341  -0.2447  -0.2002  -0.1594  -0.1527  -0.0745   0.0138
     0.2359   0.2460   0.2461   0.2647   0.3443   0.3489   0.3694   0.4054
     0.4794   0.5418   0.5646   0.6603   0.6641   0.7577   0.8163   0.9276

     occupation numbers
     1.0000   1.0000   1.0000   1.0000   1.0000   1.0000   1.0000   1.0000
     1.0000   1.0000   1.0000   1.0000   1.0000   1.0000   1.0000   1.0000
     1.0000   1.0000   1.0000   1.0000   1.0000   1.0000   1.0000   1.0000
     1.0000   1.0000   1.0000   1.0000   1.0000   1.0000   1.0000   1.0000
     1.0000   1.0000   1.0000   1.0000   1.0000   1.0000   1.0000   1.0000
     1.0000   1.0000   1.0000   1.0000   1.0000   1.0000   1.0000   1.0000
     1.0000   1.0000   1.0000   1.0000   1.0000   1.0000   1.0000   1.0000
     1.0000   1.0000   1.0000   1.0000   1.0000   1.0000   1.0000   1.0000
     1.0000   1.0000   1.0000   1.0000   1.0000   1.0000   1.0000   1.0000

     highest occupied level (ev):     0.9950

!    total energy              =   -1308.98940648 Ry

     total all-electron energy =     -6513.275064 Ry
     estimated scf accuracy    <          8.4E-09 Ry

     The total energy is the sum of the following terms:
     one-electron contribution =    -442.02034100 Ry
     hartree contribution      =     313.59138362 Ry
     xc contribution           =    -190.85798087 Ry
     ewald contribution        =    -580.67971904 Ry
     one-center paw contrib.   =    -409.02274918 Ry
      -> PAW hartree energy AE =      15.15757503 Ry
      -> PAW hartree energy PS =     -15.14177742 Ry
      -> PAW xc energy AE      =    -222.20155221 Ry
      -> PAW xc energy PS      =      14.32922594 Ry
      -> total E_H with PAW    =     313.60718123 Ry
      -> total E_XC with PAW   =    -398.73030715 Ry

     convergence has been achieved in  10 iterations

     Writing output data file ./tmp/AlF3.save/

     General routines

     Parallel routines

     PAW routines

   This run was terminated on:  23:10:41  16Jul2025

   JOB DONE.