     Program PWSCF v.6.8 starts on 16Jul2025 at 16:27:30

     Waiting for input...
     Reading input from standard input

     Current dimensions of program PWSCF are:
     Max number of different atomic species (ntypx) = 10
     Max number of k-points (npk) =  40000
     Max angular momentum in pseudopotentials (lmaxx) =  4
     file Al.pbe-n-kjpaw_psl.1.0.0.UPF: wavefunction(s)  3S 3P renormalized
     file F.pbe-n-kjpaw_psl.1.0.0.UPF: wavefunction(s)  2S 2P renormalized
     Found symmetry operation: I + ( -0.3333  0.3333  0.3333)
     This is a supercell, fractional translations are disabled
     Message from routine setup:
     using ibrav=0 with symmetry is DISCOURAGED, use correct ibrav instead

     Subspace diagonalization in iterative solution of the eigenvalue problem:
     a serial algorithm will be used

     Using Slab Decomposition

     bravais-lattice index     =            0
     lattice parameter (alat)  =       9.3253  a.u.
     unit-cell volume          =    1761.8156 (a.u.)^3
     number of atoms/cell      =           24
     number of atomic types    =            2
     number of electrons       =       144.00
     number of Kohn-Sham states=           72
     kinetic-energy cutoff     =      60.0000  Ry
     charge density cutoff     =     480.0000  Ry
     scf convergence threshold =      1.0E-08
     mixing beta               =       0.7000
     number of iterations used =            8  plain     mixing
     Exchange-correlation= SLA  PW   PBX  PBC
                           (   1   4   3   4   0   0   0)

     celldm(1)=   9.325347  celldm(2)=   0.000000  celldm(3)=   0.000000
     celldm(4)=   0.000000  celldm(5)=   0.000000  celldm(6)=   0.000000

     crystal axes: (cart. coord. in units of alat)
               a(1) = (   1.000000   0.000000   0.000000 )
               a(2) = (  -0.500000   0.866025   0.000000 )
               a(3) = (   0.000000   0.000000   2.508620 )

     reciprocal axes: (cart. coord. in units 2 pi/alat)
               b(1) = (  1.000000  0.577350 -0.000000 )
               b(2) = (  0.000000  1.154701  0.000000 )
               b(3) = (  0.000000 -0.000000  0.398626 )

     PseudoPot. # 1 for Al read from file:
     ../../Pseudo/Al.pbe-n-kjpaw_psl.1.0.0.UPF
     MD5 check sum: 52edf3c3f0a11d3bd4e10b4aee4665d0
     Pseudo is Projector augmented-wave + core cor, Zval =  3.0
     Generated using &quot;atomic&quot; code by A. Dal Corso  v.6.3
     Shape of augmentation charge: PSQ
     Using radial grid of 1135 points,  6 beta functions with:
                l(1) =   0
                l(2) =   0
                l(3) =   1
                l(4) =   1
                l(5) =   2
                l(6) =   2
     Q(r) pseudized with 0 coefficients

     PseudoPot. # 2 for F  read from file:
     ../../Pseudo/F.pbe-n-kjpaw_psl.1.0.0.UPF
     MD5 check sum: 3189b5d740a3f1e0650252e1c324aeb8
     Pseudo is Projector augmented-wave + core cor, Zval =  7.0
     Generated using &quot;atomic&quot; code by A. Dal Corso  v.6.3
     Shape of augmentation charge: PSQ
     Using radial grid of 1105 points,  4 beta functions with:
                l(1) =   0
                l(2) =   0
                l(3) =   1
                l(4) =   1
     Q(r) pseudized with 0 coefficients

     atomic species   valence    mass     pseudopotential
        Al             3.00    26.98154     Al( 1.00)
        F              7.00    18.99840     F ( 1.00)

      6 Sym. Ops., with inversion, found

                                    s                        frac. trans.

      isym =  1     identity

 cryst.   s( 1) = (     1          0          0      )
                  (     0          1          0      )
                  (     0          0          1      )

 cart.    s( 1) = (  1.0000000  0.0000000  0.0000000 )
                  (  0.0000000  1.0000000  0.0000000 )
                  (  0.0000000  0.0000000  1.0000000 )

      isym =  2     120 deg rotation - cryst. axis [0,0,1]

[...]

      isym =  3     120 deg rotation - cryst. axis [0,0,-1]

[...]

      isym =  4     inversion

[...]

      isym =  5     inv. 120 deg rotation - cryst. axis [0,0,1]

[...]

      isym =  6     inv. 120 deg rotation - cryst. axis [0,0,-1]

 cryst.   s( 6) = (     1          1          0      )
                  (    -1          0          0      )
                  (     0          0         -1      )

 cart.    s( 6) = (  0.5000000 -0.8660254  0.0000000 )
                  (  0.8660254  0.5000000  0.0000000 )
                  (  0.0000000  0.0000000 -1.0000000 )

   Cartesian axes

     site n.     atom                  positions (alat units)
         1           Al  tau(   1) = (   0.0000000   0.0000000   0.0000000  )
         2           Al  tau(   2) = (   0.0000000   0.0000000   1.2543099  )
         3           Al  tau(   3) = (   0.5000005   0.2886748   0.8362058  )
         4           Al  tau(   4) = (   0.5000005   0.2886748   2.0905156  )
         5           Al  tau(   5) = (  -0.0000005   0.5773506   1.6724140  )
         6           Al  tau(   6) = (  -0.0000005   0.5773506   0.4181041  )
         7           F   tau(   7) = (   0.4252100   0.0000000   0.6271549  )
         8           F   tau(   8) = (  -0.2126050   0.3682427   0.6271549  )
         9           F   tau(   9) = (   0.2873950   0.4977827   0.6271549  )
        10           F   tau(  10) = (   0.5747900   0.0000000   1.8814648  )
        11           F   tau(  11) = (  -0.2873950   0.4977827   1.8814648  )
        12           F   tau(  12) = (   0.2126050   0.3682427   1.8814648  )
        13           F   tau(  13) = (  -0.0747895   0.2886748   1.4633607  )
        14           F   tau(  14) = (   0.2873955   0.6569175   1.4633607  )
        15           F   tau(  15) = (  -0.2126045   0.7864576   1.4633607  )
        16           F   tau(  16) = (   0.0747905   0.2886748   0.2090508  )
        17           F   tau(  17) = (   0.2126055   0.7864576   0.2090508  )
        18           F   tau(  18) = (  -0.2873945   0.6569175   0.2090508  )
        19           F   tau(  19) = (   0.4252095   0.5773506   2.2995690  )
        20           F   tau(  20) = (   0.2873945   0.0795678   2.2995690  )
        21           F   tau(  21) = (   0.7873945   0.2091079   2.2995690  )
        22           F   tau(  22) = (   0.5747895   0.5773506   1.0452591  )
        23           F   tau(  23) = (   0.2126045   0.2091079   1.0452591  )
        24           F   tau(  24) = (   0.7126045   0.0795678   1.0452591  )

   Crystallographic axes

     site n.     atom                  positions (cryst. coord.)
         1           Al  tau(   1) = (  0.0000000  0.0000000  0.0000000  )
         2           Al  tau(   2) = (  0.0000000  0.0000000  0.5000000  )
         3           Al  tau(   3) = (  0.6666670  0.3333330  0.3333330  )
         4           Al  tau(   4) = (  0.6666670  0.3333330  0.8333330  )
         5           Al  tau(   5) = (  0.3333330  0.6666670  0.6666670  )
         6           Al  tau(   6) = (  0.3333330  0.6666670  0.1666670  )
         7           F   tau(   7) = (  0.4252100  0.0000000  0.2500000  )
         8           F   tau(   8) = (  0.0000000  0.4252100  0.2500000  )
         9           F   tau(   9) = (  0.5747900  0.5747900  0.2500000  )
        10           F   tau(  10) = (  0.5747900  0.0000000  0.7500000  )
        11           F   tau(  11) = (  0.0000000  0.5747900  0.7500000  )
        12           F   tau(  12) = (  0.4252100  0.4252100  0.7500000  )
        13           F   tau(  13) = (  0.0918770  0.3333330  0.5833330  )
        14           F   tau(  14) = (  0.6666670  0.7585430  0.5833330  )
        15           F   tau(  15) = (  0.2414570  0.9081230  0.5833330  )
        16           F   tau(  16) = (  0.2414570  0.3333330  0.0833330  )
        17           F   tau(  17) = (  0.6666670  0.9081230  0.0833330  )
        18           F   tau(  18) = (  0.0918770  0.7585430  0.0833330  )
        19           F   tau(  19) = (  0.7585430  0.6666670  0.9166670  )
        20           F   tau(  20) = (  0.3333330  0.0918770  0.9166670  )
        21           F   tau(  21) = (  0.9081230  0.2414570  0.9166670  )
        22           F   tau(  22) = (  0.9081230  0.6666670  0.4166670  )
        23           F   tau(  23) = (  0.3333330  0.2414570  0.4166670  )
        24           F   tau(  24) = (  0.7585430  0.0918770  0.4166670  )

     number of k points=     4
                       cart. coord. in units 2pi/alat
        k(    1) = (   0.2500000   0.4330127   0.0996564), wk =   0.5000000
        k(    2) = (   0.2500000  -0.1443376   0.0996564), wk =   0.5000000
        k(    3) = (  -0.2500000  -0.4330127   0.0996564), wk =   0.5000000
        k(    4) = (  -0.2500000   0.1443376   0.0996564), wk =   0.5000000

                       cryst. coord.
        k(    1) = (   0.2500000   0.2500000   0.2500000), wk =   0.5000000
        k(    2) = (   0.2500000  -0.2500000   0.2500000), wk =   0.5000000
        k(    3) = (  -0.2500000  -0.2500000   0.2500000), wk =   0.5000000
        k(    4) = (  -0.2500000   0.2500000   0.2500000), wk =   0.5000000

     Initial potential from superposition of free atoms

     starting charge  143.98625, renormalised to  144.00000
     Starting wfcs are   96 randomized atomic wfcs
     Checking if some PAW data can be deallocated...

     Self-consistent Calculation

     iteration #  1     ecut=    60.00 Ry     beta= 0.70
     Davidson diagonalization with overlap

     ethr =  1.00E-02,  avg # of iterations =  2.0

     total energy              =   -1307.81996239 Ry
     estimated scf accuracy    <       2.64832855 Ry

[...]

     total energy              =   -1308.97414342 Ry
     estimated scf accuracy    <       0.00000003 Ry

     iteration # 11     ecut=    60.00 Ry     beta= 0.70
     Davidson diagonalization with overlap

     ethr =  2.16E-11,  avg # of iterations =  2.0

     End of self-consistent calculation

          k = 0.2500 0.4330 0.0997 ( 13792 PWs)   bands (ev):

   -20.4246 -20.3321 -20.1872 -20.0758 -20.0256 -19.9850 -19.6922 -19.6725
   -19.6564 -19.6024 -19.5924 -19.4825 -19.4700 -19.4210 -19.3853 -19.3045
   -19.2957 -19.2688  -4.9392  -4.7199  -4.3825  -4.1468  -4.0964  -4.0715
    -3.1642  -2.9885  -2.9494  -2.9215  -2.7640  -2.6927  -2.4929  -2.3133
    -2.2882  -1.9961  -1.9502  -1.8964  -1.8809  -1.8711  -1.8491  -1.6326
    -1.3249  -1.3100  -1.2248  -0.9039  -0.8663  -0.8344  -0.7140  -0.6998
    -0.6634  -0.3876  -0.3465  -0.2693  -0.1802  -0.1506  -0.1214   0.0149
     0.0446   0.0627   0.1258   0.1778   0.1869   0.2594   0.2678   0.4333
     0.4373   0.4594   0.4932   0.5121   0.5689   0.6853   0.7464   0.7787

     occupation numbers
     1.0000   1.0000   1.0000   1.0000   1.0000   1.0000   1.0000   1.0000
     1.0000   1.0000   1.0000   1.0000   1.0000   1.0000   1.0000   1.0000
     1.0000   1.0000   1.0000   1.0000   1.0000   1.0000   1.0000   1.0000
     1.0000   1.0000   1.0000   1.0000   1.0000   1.0000   1.0000   1.0000
     1.0000   1.0000   1.0000   1.0000   1.0000   1.0000   1.0000   1.0000
     1.0000   1.0000   1.0000   1.0000   1.0000   1.0000   1.0000   1.0000
     1.0000   1.0000   1.0000   1.0000   1.0000   1.0000   1.0000   1.0000
     1.0000   1.0000   1.0000   1.0000   1.0000   1.0000   1.0000   1.0000
     1.0000   1.0000   1.0000   1.0000   1.0000   1.0000   1.0000   1.0000

          k = 0.2500-0.1443 0.0997 ( 13858 PWs)   bands (ev):

[...]

          k =-0.2500-0.4330 0.0997 ( 13792 PWs)   bands (ev):

[...]

          k =-0.2500 0.1443 0.0997 ( 13858 PWs)   bands (ev):

   -20.6763 -20.5537 -20.3091 -20.0780 -19.8155 -19.7566 -19.6714 -19.6490
   -19.5923 -19.5706 -19.5563 -19.5200 -19.4833 -19.3679 -19.3449 -19.3006
   -19.2952 -19.2223  -5.5062  -5.1858  -4.6014  -4.1697  -3.8766  -3.5217
    -3.3369  -3.2797  -3.1753  -3.1749  -3.0581  -2.5456  -2.4170  -2.1996
    -2.1109  -2.0931  -1.9240  -1.8612  -1.7639  -1.6622  -1.5716  -1.5673
    -1.5352  -1.5151  -1.4082  -1.2676  -1.2059  -0.6438  -0.6213  -0.3662
    -0.3247  -0.2891  -0.2481  -0.2085  -0.1758  -0.1126  -0.0949  -0.0624
    -0.0132   0.2761   0.3086   0.3140   0.3331   0.3594   0.4028   0.4422
     0.4464   0.5175   0.5646   0.6041   0.6141   0.8303   0.8604   0.8642

     occupation numbers
     1.0000   1.0000   1.0000   1.0000   1.0000   1.0000   1.0000   1.0000
     1.0000   1.0000   1.0000   1.0000   1.0000   1.0000   1.0000   1.0000
     1.0000   1.0000   1.0000   1.0000   1.0000   1.0000   1.0000   1.0000
     1.0000   1.0000   1.0000   1.0000   1.0000   1.0000   1.0000   1.0000
     1.0000   1.0000   1.0000   1.0000   1.0000   1.0000   1.0000   1.0000
     1.0000   1.0000   1.0000   1.0000   1.0000   1.0000   1.0000   1.0000
     1.0000   1.0000   1.0000   1.0000   1.0000   1.0000   1.0000   1.0000
     1.0000   1.0000   1.0000   1.0000   1.0000   1.0000   1.0000   1.0000
     1.0000   1.0000   1.0000   1.0000   1.0000   1.0000   1.0000   1.0000

     highest occupied level (ev):     0.9169

!    total energy              =   -1308.97414343 Ry

     total all-electron energy =     -6513.259801 Ry
     estimated scf accuracy    <          3.4E-09 Ry

     The total energy is the sum of the following terms:
     one-electron contribution =    -443.61097486 Ry
     hartree contribution      =     314.15828624 Ry
     xc contribution           =    -190.79483978 Ry
     ewald contribution        =    -579.70379322 Ry
     one-center paw contrib.   =    -409.02282181 Ry
      -> PAW hartree energy AE =     804.80390436 Ry
      -> PAW hartree energy PS =    -804.32414434 Ry
      -> PAW xc energy AE      =    -597.27923553 Ry
      -> PAW xc energy PS      =     187.77665371 Ry
      -> total E_H with PAW    =     314.63804626 Ry
      -> total E_XC with PAW   =    -600.29742161 Ry

     convergence has been achieved in  11 iterations

     Writing output data file ./tmp/AlF3.save/

     General routines

     Parallel routines

     PAW routines

   This run was terminated on:  16:49:17  16Jul2025

   JOB DONE.