     Program PWSCF v.6.8 starts on 16Jul2025 at 17:24:27

     R & G space division:  proc/nbgrp/npool/nimage =       4

     Reading input from AlF3.scf.in_90Ry

     Current dimensions of program PWSCF are:
     Max number of different atomic species (ntypx) = 10
     Max number of k-points (npk) =  40000
     Max angular momentum in pseudopotentials (lmaxx) =  4
     file Al.pbe-n-kjpaw_psl.1.0.0.UPF: wavefunction(s)  3S 3P renormalized
     file F.pbe-n-kjpaw_psl.1.0.0.UPF: wavefunction(s)  2S 2P renormalized
     Found symmetry operation: I + ( -0.3333  0.3333  0.3333)
     This is a supercell, fractional translations are disabled
     Message from routine setup:
     using ibrav=0 with symmetry is DISCOURAGED, use correct ibrav instead

     Subspace diagonalization in iterative solution of the eigenvalue problem:
     a serial algorithm will be used

     Using Slab Decomposition

     bravais-lattice index     =            0
     lattice parameter (alat)  =       9.3253  a.u.
     unit-cell volume          =    1761.8156 (a.u.)^3
     number of atoms/cell      =           24
     number of atomic types    =            2
     number of electrons       =       144.00
     number of Kohn-Sham states=           72
     kinetic-energy cutoff     =      90.0000  Ry
     charge density cutoff     =     720.0000  Ry
     scf convergence threshold =      1.0E-08
     mixing beta               =       0.7000
     number of iterations used =            8  plain     mixing
     Exchange-correlation= SLA  PW   PBX  PBC
                           (   1   4   3   4   0   0   0)

     celldm(1)=   9.325347  celldm(2)=   0.000000  celldm(3)=   0.000000
     celldm(4)=   0.000000  celldm(5)=   0.000000  celldm(6)=   0.000000

     crystal axes: (cart. coord. in units of alat)
               a(1) = (   1.000000   0.000000   0.000000 )
               a(2) = (  -0.500000   0.866025   0.000000 )
               a(3) = (   0.000000   0.000000   2.508620 )

     reciprocal axes: (cart. coord. in units 2 pi/alat)
               b(1) = (  1.000000  0.577350 -0.000000 )
               b(2) = (  0.000000  1.154701  0.000000 )
               b(3) = (  0.000000 -0.000000  0.398626 )

     PseudoPot. # 1 for Al read from file:
     ../../Pseudo/Al.pbe-n-kjpaw_psl.1.0.0.UPF
     MD5 check sum: 52edf3c3f0a11d3bd4e10b4aee4665d0
     Pseudo is Projector augmented-wave + core cor, Zval =  3.0
     Generated using &quot;atomic&quot; code by A. Dal Corso  v.6.3
     Shape of augmentation charge: PSQ
     Using radial grid of 1135 points,  6 beta functions with:
                l(1) =   0
                l(2) =   0
                l(3) =   1
                l(4) =   1
                l(5) =   2
                l(6) =   2
     Q(r) pseudized with 0 coefficients

     PseudoPot. # 2 for F  read from file:
     ../../Pseudo/F.pbe-n-kjpaw_psl.1.0.0.UPF
     MD5 check sum: 3189b5d740a3f1e0650252e1c324aeb8
     Pseudo is Projector augmented-wave + core cor, Zval =  7.0
     Generated using &quot;atomic&quot; code by A. Dal Corso  v.6.3
     Shape of augmentation charge: PSQ
     Using radial grid of 1105 points,  4 beta functions with:
                l(1) =   0
                l(2) =   0
                l(3) =   1
                l(4) =   1
     Q(r) pseudized with 0 coefficients

     atomic species   valence    mass     pseudopotential
        Al             3.00    26.98154     Al( 1.00)
        F              7.00    18.99840     F ( 1.00)

      6 Sym. Ops., with inversion, found

                                    s                        frac. trans.

      isym =  1     identity

 cryst.   s( 1) = (     1          0          0      )
                  (     0          1          0      )
                  (     0          0          1      )

 cart.    s( 1) = (  1.0000000  0.0000000  0.0000000 )
                  (  0.0000000  1.0000000  0.0000000 )
                  (  0.0000000  0.0000000  1.0000000 )

      isym =  2     120 deg rotation - cryst. axis [0,0,1]

[...]

      isym =  3     120 deg rotation - cryst. axis [0,0,-1]

[...]

      isym =  4     inversion

[...]

      isym =  5     inv. 120 deg rotation - cryst. axis [0,0,1]

[...]

      isym =  6     inv. 120 deg rotation - cryst. axis [0,0,-1]

 cryst.   s( 6) = (     1          1          0      )
                  (    -1          0          0      )
                  (     0          0         -1      )

 cart.    s( 6) = (  0.5000000 -0.8660254  0.0000000 )
                  (  0.8660254  0.5000000  0.0000000 )
                  (  0.0000000  0.0000000 -1.0000000 )

   Cartesian axes

     site n.     atom                  positions (alat units)
         1           Al  tau(   1) = (   0.0000000   0.0000000   0.0000000  )
         2           Al  tau(   2) = (   0.0000000   0.0000000   1.2543099  )
         3           Al  tau(   3) = (   0.5000000   0.2886751   0.8362066  )
         4           Al  tau(   4) = (   0.5000000   0.2886751   2.0905165  )
         5           Al  tau(   5) = (   0.0000000   0.5773503   1.6724132  )
         6           Al  tau(   6) = (   0.0000000   0.5773503   0.4181033  )
         7           F   tau(   7) = (   0.4252100   0.0000000   0.6271549  )
         8           F   tau(   8) = (  -0.2126050   0.3682427   0.6271549  )
         9           F   tau(   9) = (   0.2873950   0.4977827   0.6271549  )
        10           F   tau(  10) = (   0.5747900   0.0000000   1.8814648  )
        11           F   tau(  11) = (  -0.2873950   0.4977827   1.8814648  )
        12           F   tau(  12) = (   0.2126050   0.3682427   1.8814648  )
        13           F   tau(  13) = (  -0.0747900   0.2886751   1.4633615  )
        14           F   tau(  14) = (   0.2873950   0.6569178   1.4633615  )
        15           F   tau(  15) = (  -0.2126050   0.7864579   1.4633615  )
        16           F   tau(  16) = (   0.0747900   0.2886751   0.2090516  )
        17           F   tau(  17) = (   0.2126050   0.7864579   0.2090516  )
        18           F   tau(  18) = (  -0.2873950   0.6569178   0.2090516  )
        19           F   tau(  19) = (   0.4252100   0.5773503   2.2995681  )
        20           F   tau(  20) = (   0.2873950   0.0795675   2.2995681  )
        21           F   tau(  21) = (   0.7873950   0.2091076   2.2995681  )
        22           F   tau(  22) = (   0.5747900   0.5773503   1.0452582  )
        23           F   tau(  23) = (   0.2126050   0.2091076   1.0452582  )
        24           F   tau(  24) = (   0.7126050   0.0795675   1.0452582  )

   Crystallographic axes

     site n.     atom                  positions (cryst. coord.)
         1           Al  tau(   1) = (  0.0000000  0.0000000  0.0000000  )
         2           Al  tau(   2) = (  0.0000000  0.0000000  0.5000000  )
         3           Al  tau(   3) = (  0.6666667  0.3333333  0.3333333  )
         4           Al  tau(   4) = (  0.6666667  0.3333333  0.8333333  )
         5           Al  tau(   5) = (  0.3333333  0.6666667  0.6666667  )
         6           Al  tau(   6) = (  0.3333333  0.6666667  0.1666667  )
         7           F   tau(   7) = (  0.4252100  0.0000000  0.2500000  )
         8           F   tau(   8) = (  0.0000000  0.4252100  0.2500000  )
         9           F   tau(   9) = (  0.5747900  0.5747900  0.2500000  )
        10           F   tau(  10) = (  0.5747900  0.0000000  0.7500000  )
        11           F   tau(  11) = ( -0.0000000  0.5747900  0.7500000  )
        12           F   tau(  12) = (  0.4252100  0.4252100  0.7500000  )
        13           F   tau(  13) = (  0.0918767  0.3333333  0.5833333  )
        14           F   tau(  14) = (  0.6666667  0.7585433  0.5833333  )
        15           F   tau(  15) = (  0.2414567  0.9081233  0.5833333  )
        16           F   tau(  16) = (  0.2414567  0.3333333  0.0833333  )
        17           F   tau(  17) = (  0.6666667  0.9081233  0.0833333  )
        18           F   tau(  18) = (  0.0918767  0.7585433  0.0833333  )
        19           F   tau(  19) = (  0.7585433  0.6666667  0.9166667  )
        20           F   tau(  20) = (  0.3333333  0.0918767  0.9166667  )
        21           F   tau(  21) = (  0.9081233  0.2414567  0.9166667  )
        22           F   tau(  22) = (  0.9081233  0.6666667  0.4166667  )
        23           F   tau(  23) = (  0.3333333  0.2414567  0.4166667  )
        24           F   tau(  24) = (  0.7585433  0.0918767  0.4166667  )

     number of k points=     4
                       cart. coord. in units 2pi/alat
        k(    1) = (   0.2500000   0.4330127   0.0996564), wk =   0.5000000
        k(    2) = (   0.2500000  -0.1443376   0.0996564), wk =   0.5000000
        k(    3) = (  -0.2500000  -0.4330127   0.0996564), wk =   0.5000000
        k(    4) = (  -0.2500000   0.1443376   0.0996564), wk =   0.5000000

                       cryst. coord.
        k(    1) = (   0.2500000   0.2500000   0.2500000), wk =   0.5000000
        k(    2) = (   0.2500000  -0.2500000   0.2500000), wk =   0.5000000
        k(    3) = (  -0.2500000  -0.2500000   0.2500000), wk =   0.5000000
        k(    4) = (  -0.2500000   0.2500000   0.2500000), wk =   0.5000000

     Initial potential from superposition of free atoms

     starting charge  143.98625, renormalised to  144.00000
     Starting wfcs are   96 randomized atomic wfcs
     Checking if some PAW data can be deallocated...

     Self-consistent Calculation

     iteration #  1     ecut=    90.00 Ry     beta= 0.70
     Davidson diagonalization with overlap

     ethr =  1.00E-02,  avg # of iterations =  2.0

     total energy              =   -1307.84292951 Ry
     estimated scf accuracy    <       2.64611685 Ry

[...]

     total energy              =   -1308.99447119 Ry
     estimated scf accuracy    <       0.00000481 Ry

     iteration #  9     ecut=    90.00 Ry     beta= 0.70
     Davidson diagonalization with overlap

     ethr =  3.34E-09,  avg # of iterations =  3.0

     End of self-consistent calculation

          k = 0.2500 0.4330 0.0997 ( 25405 PWs)   bands (ev):

   -20.4240 -20.3316 -20.1866 -20.0752 -20.0250 -19.9845 -19.6916 -19.6719
   -19.6558 -19.6018 -19.5919 -19.4820 -19.4695 -19.4204 -19.3847 -19.3039
   -19.2952 -19.2682  -4.9404  -4.7212  -4.3838  -4.1482  -4.0977  -4.0728
    -3.1656  -2.9900  -2.9509  -2.9230  -2.7656  -2.6943  -2.4947  -2.3151
    -2.2900  -1.9979  -1.9515  -1.8981  -1.8822  -1.8729  -1.8507  -1.6340
    -1.3265  -1.3115  -1.2264  -0.9056  -0.8680  -0.8361  -0.7158  -0.7014
    -0.6651  -0.3894  -0.3483  -0.2713  -0.1822  -0.1526  -0.1233   0.0129
     0.0426   0.0608   0.1238   0.1758   0.1849   0.2573   0.2657   0.4312
     0.4352   0.4573   0.4911   0.5100   0.5668   0.6831   0.7442   0.7765

     occupation numbers
     1.0000   1.0000   1.0000   1.0000   1.0000   1.0000   1.0000   1.0000
     1.0000   1.0000   1.0000   1.0000   1.0000   1.0000   1.0000   1.0000
     1.0000   1.0000   1.0000   1.0000   1.0000   1.0000   1.0000   1.0000
     1.0000   1.0000   1.0000   1.0000   1.0000   1.0000   1.0000   1.0000
     1.0000   1.0000   1.0000   1.0000   1.0000   1.0000   1.0000   1.0000
     1.0000   1.0000   1.0000   1.0000   1.0000   1.0000   1.0000   1.0000
     1.0000   1.0000   1.0000   1.0000   1.0000   1.0000   1.0000   1.0000
     1.0000   1.0000   1.0000   1.0000   1.0000   1.0000   1.0000   1.0000
     1.0000   1.0000   1.0000   1.0000   1.0000   1.0000   1.0000   1.0000

          k = 0.2500-0.1443 0.0997 ( 25382 PWs)   bands (ev):

[...]

          k =-0.2500-0.4330 0.0997 ( 25405 PWs)   bands (ev):

[...]

          k =-0.2500 0.1443 0.0997 ( 25382 PWs)   bands (ev):

   -20.6757 -20.5531 -20.3085 -20.0774 -19.8149 -19.7560 -19.6708 -19.6484
   -19.5917 -19.5700 -19.5557 -19.5195 -19.4827 -19.3673 -19.3443 -19.3000
   -19.2946 -19.2217  -5.5073  -5.1869  -4.6026  -4.1710  -3.8778  -3.5231
    -3.3383  -3.2810  -3.1766  -3.1763  -3.0596  -2.5472  -2.4187  -2.2012
    -2.1127  -2.0946  -1.9252  -1.8626  -1.7654  -1.6635  -1.5734  -1.5691
    -1.5371  -1.5165  -1.4095  -1.2692  -1.2073  -0.6456  -0.6231  -0.3680
    -0.3265  -0.2909  -0.2500  -0.2103  -0.1776  -0.1145  -0.0968  -0.0643
    -0.0151   0.2741   0.3066   0.3120   0.3312   0.3573   0.4007   0.4400
     0.4444   0.5154   0.5625   0.6021   0.6119   0.8282   0.8582   0.8620

     occupation numbers
     1.0000   1.0000   1.0000   1.0000   1.0000   1.0000   1.0000   1.0000
     1.0000   1.0000   1.0000   1.0000   1.0000   1.0000   1.0000   1.0000
     1.0000   1.0000   1.0000   1.0000   1.0000   1.0000   1.0000   1.0000
     1.0000   1.0000   1.0000   1.0000   1.0000   1.0000   1.0000   1.0000
     1.0000   1.0000   1.0000   1.0000   1.0000   1.0000   1.0000   1.0000
     1.0000   1.0000   1.0000   1.0000   1.0000   1.0000   1.0000   1.0000
     1.0000   1.0000   1.0000   1.0000   1.0000   1.0000   1.0000   1.0000
     1.0000   1.0000   1.0000   1.0000   1.0000   1.0000   1.0000   1.0000
     1.0000   1.0000   1.0000   1.0000   1.0000   1.0000   1.0000   1.0000

     highest occupied level (ev):     0.9148

!    total energy              =   -1308.99447239 Ry

     total all-electron energy =     -6513.280130 Ry
     estimated scf accuracy    <          3.1E-09 Ry

     The total energy is the sum of the following terms:
     one-electron contribution =    -443.64054616 Ry
     hartree contribution      =     314.16662134 Ry
     xc contribution           =    -190.80058221 Ry
     ewald contribution        =    -579.70379323 Ry
     one-center paw contrib.   =    -409.01617213 Ry
      -> PAW hartree energy AE =      14.87410203 Ry
      -> PAW hartree energy PS =     -14.85845435 Ry
      -> PAW xc energy AE      =    -222.08479358 Ry
      -> PAW xc energy PS      =      14.21906471 Ry
      -> total E_H with PAW    =     314.18226901 Ry
      -> total E_XC with PAW   =    -398.66631108 Ry

     convergence has been achieved in   9 iterations

     Writing output data file ./tmp/AlF3.save/

     General routines

     Parallel routines

     PAW routines

   This run was terminated on:  17:47:23  16Jul2025

   JOB DONE.