     Program PWSCF v.6.8 starts on 16Jul2025 at 12: 8:37

     R & G space division:  proc/nbgrp/npool/nimage =       4

     Reading input from AlF3.scf.in

     Current dimensions of program PWSCF are:
     Max number of different atomic species (ntypx) = 10
     Max number of k-points (npk) =  40000
     Max angular momentum in pseudopotentials (lmaxx) =  4
     file Al.pbe-n-kjpaw_psl.1.0.0.UPF: wavefunction(s)  3S 3P renormalized
     file F.pbe-n-kjpaw_psl.1.0.0.UPF: wavefunction(s)  2S 2P renormalized
     Found symmetry operation: I + ( -0.3333  0.3333  0.3333)
     This is a supercell, fractional translations are disabled
     Message from routine setup:
     using ibrav=0 with symmetry is DISCOURAGED, use correct ibrav instead

     Subspace diagonalization in iterative solution of the eigenvalue problem:
     a serial algorithm will be used

     Using Slab Decomposition

     bravais-lattice index     =            0
     lattice parameter (alat)  =       9.3253  a.u.
     unit-cell volume          =    1761.8156 (a.u.)^3
     number of atoms/cell      =           24
     number of atomic types    =            2
     number of electrons       =       144.00
     number of Kohn-Sham states=           72
     kinetic-energy cutoff     =      20.0000  Ry
     charge density cutoff     =     240.0000  Ry
     scf convergence threshold =      1.0E-08
     mixing beta               =       0.7000
     number of iterations used =            8  plain     mixing
     Exchange-correlation= SLA  PW   PBX  PBC
                           (   1   4   3   4   0   0   0)

     celldm(1)=   9.325347  celldm(2)=   0.000000  celldm(3)=   0.000000
     celldm(4)=   0.000000  celldm(5)=   0.000000  celldm(6)=   0.000000

     crystal axes: (cart. coord. in units of alat)
               a(1) = (   1.000000   0.000000   0.000000 )
               a(2) = (  -0.500000   0.866025   0.000000 )
               a(3) = (   0.000000   0.000000   2.508620 )

     reciprocal axes: (cart. coord. in units 2 pi/alat)
               b(1) = (  1.000000  0.577350 -0.000000 )
               b(2) = (  0.000000  1.154701  0.000000 )
               b(3) = (  0.000000 -0.000000  0.398626 )

     PseudoPot. # 1 for Al read from file:
     ../../Pseudo/Al.pbe-n-kjpaw_psl.1.0.0.UPF
     MD5 check sum: 52edf3c3f0a11d3bd4e10b4aee4665d0
     Pseudo is Projector augmented-wave + core cor, Zval =  3.0
     Generated using &quot;atomic&quot; code by A. Dal Corso  v.6.3
     Shape of augmentation charge: PSQ
     Using radial grid of 1135 points,  6 beta functions with:
                l(1) =   0
                l(2) =   0
                l(3) =   1
                l(4) =   1
                l(5) =   2
                l(6) =   2
     Q(r) pseudized with 0 coefficients

     PseudoPot. # 2 for F  read from file:
     ../../Pseudo/F.pbe-n-kjpaw_psl.1.0.0.UPF
     MD5 check sum: 3189b5d740a3f1e0650252e1c324aeb8
     Pseudo is Projector augmented-wave + core cor, Zval =  7.0
     Generated using &quot;atomic&quot; code by A. Dal Corso  v.6.3
     Shape of augmentation charge: PSQ
     Using radial grid of 1105 points,  4 beta functions with:
                l(1) =   0
                l(2) =   0
                l(3) =   1
                l(4) =   1
     Q(r) pseudized with 0 coefficients

     atomic species   valence    mass     pseudopotential
        Al             3.00    26.98154     Al( 1.00)
        F              7.00    18.99840     F ( 1.00)

      6 Sym. Ops., with inversion, found

                                    s                        frac. trans.

      isym =  1     identity

 cryst.   s( 1) = (     1          0          0      )
                  (     0          1          0      )
                  (     0          0          1      )

 cart.    s( 1) = (  1.0000000  0.0000000  0.0000000 )
                  (  0.0000000  1.0000000  0.0000000 )
                  (  0.0000000  0.0000000  1.0000000 )

      isym =  2     120 deg rotation - cryst. axis [0,0,1]

[...]

      isym =  3     120 deg rotation - cryst. axis [0,0,-1]

[...]

      isym =  4     inversion

[...]

      isym =  5     inv. 120 deg rotation - cryst. axis [0,0,1]

[...]

      isym =  6     inv. 120 deg rotation - cryst. axis [0,0,-1]

 cryst.   s( 6) = (     1          1          0      )
                  (    -1          0          0      )
                  (     0          0         -1      )

 cart.    s( 6) = (  0.5000000 -0.8660254  0.0000000 )
                  (  0.8660254  0.5000000  0.0000000 )
                  (  0.0000000  0.0000000 -1.0000000 )

   Cartesian axes

     site n.     atom                  positions (alat units)
         1           Al  tau(   1) = (   0.0000000   0.0000000   0.0000000  )
         2           Al  tau(   2) = (   0.0000000   0.0000000   1.2543099  )
         3           Al  tau(   3) = (   0.5000000   0.2886751   0.8362066  )
         4           Al  tau(   4) = (   0.5000000   0.2886751   2.0905165  )
         5           Al  tau(   5) = (   0.0000000   0.5773503   1.6724132  )
         6           Al  tau(   6) = (   0.0000000   0.5773503   0.4181033  )
         7           F   tau(   7) = (   0.4252100   0.0000000   0.6271549  )
         8           F   tau(   8) = (  -0.2126050   0.3682427   0.6271549  )
         9           F   tau(   9) = (   0.2873950   0.4977827   0.6271549  )
        10           F   tau(  10) = (   0.5747900   0.0000000   1.8814648  )
        11           F   tau(  11) = (  -0.2873950   0.4977827   1.8814648  )
        12           F   tau(  12) = (   0.2126050   0.3682427   1.8814648  )
        13           F   tau(  13) = (  -0.0747900   0.2886751   1.4633615  )
        14           F   tau(  14) = (   0.2873950   0.6569178   1.4633615  )
        15           F   tau(  15) = (  -0.2126050   0.7864579   1.4633615  )
        16           F   tau(  16) = (   0.0747900   0.2886751   0.2090516  )
        17           F   tau(  17) = (   0.2126050   0.7864579   0.2090516  )
        18           F   tau(  18) = (  -0.2873950   0.6569178   0.2090516  )
        19           F   tau(  19) = (   0.4252100   0.5773503   2.2995681  )
        20           F   tau(  20) = (   0.2873950   0.0795675   2.2995681  )
        21           F   tau(  21) = (   0.7873950   0.2091076   2.2995681  )
        22           F   tau(  22) = (   0.5747900   0.5773503   1.0452582  )
        23           F   tau(  23) = (   0.2126050   0.2091076   1.0452582  )
        24           F   tau(  24) = (   0.7126050   0.0795675   1.0452582  )

   Crystallographic axes

     site n.     atom                  positions (cryst. coord.)
         1           Al  tau(   1) = (  0.0000000  0.0000000  0.0000000  )
         2           Al  tau(   2) = (  0.0000000  0.0000000  0.5000000  )
         3           Al  tau(   3) = (  0.6666667  0.3333333  0.3333333  )
         4           Al  tau(   4) = (  0.6666667  0.3333333  0.8333333  )
         5           Al  tau(   5) = (  0.3333333  0.6666667  0.6666667  )
         6           Al  tau(   6) = (  0.3333333  0.6666667  0.1666667  )
         7           F   tau(   7) = (  0.4252100  0.0000000  0.2500000  )
         8           F   tau(   8) = (  0.0000000  0.4252100  0.2500000  )
         9           F   tau(   9) = (  0.5747900  0.5747900  0.2500000  )
        10           F   tau(  10) = (  0.5747900  0.0000000  0.7500000  )
        11           F   tau(  11) = ( -0.0000000  0.5747900  0.7500000  )
        12           F   tau(  12) = (  0.4252100  0.4252100  0.7500000  )
        13           F   tau(  13) = (  0.0918767  0.3333333  0.5833333  )
        14           F   tau(  14) = (  0.6666667  0.7585433  0.5833333  )
        15           F   tau(  15) = (  0.2414567  0.9081233  0.5833333  )
        16           F   tau(  16) = (  0.2414567  0.3333333  0.0833333  )
        17           F   tau(  17) = (  0.6666667  0.9081233  0.0833333  )
        18           F   tau(  18) = (  0.0918767  0.7585433  0.0833333  )
        19           F   tau(  19) = (  0.7585433  0.6666667  0.9166667  )
        20           F   tau(  20) = (  0.3333333  0.0918767  0.9166667  )
        21           F   tau(  21) = (  0.9081233  0.2414567  0.9166667  )
        22           F   tau(  22) = (  0.9081233  0.6666667  0.4166667  )
        23           F   tau(  23) = (  0.3333333  0.2414567  0.4166667  )
        24           F   tau(  24) = (  0.7585433  0.0918767  0.4166667  )

     number of k points=     4
                       cart. coord. in units 2pi/alat
        k(    1) = (   0.2500000   0.4330127   0.0996564), wk =   0.5000000
        k(    2) = (   0.2500000  -0.1443376   0.0996564), wk =   0.5000000
        k(    3) = (  -0.2500000  -0.4330127   0.0996564), wk =   0.5000000
        k(    4) = (  -0.2500000   0.1443376   0.0996564), wk =   0.5000000

                       cryst. coord.
        k(    1) = (   0.2500000   0.2500000   0.2500000), wk =   0.5000000
        k(    2) = (   0.2500000  -0.2500000   0.2500000), wk =   0.5000000
        k(    3) = (  -0.2500000  -0.2500000   0.2500000), wk =   0.5000000
        k(    4) = (  -0.2500000   0.2500000   0.2500000), wk =   0.5000000

     Check: negative core charge=   -0.000006

     Initial potential from superposition of free atoms

     starting charge  143.98625, renormalised to  144.00000
     Starting wfcs are   96 randomized atomic wfcs
     Checking if some PAW data can be deallocated...

     Self-consistent Calculation

     iteration #  1     ecut=    20.00 Ry     beta= 0.70
     Davidson diagonalization with overlap

     ethr =  1.00E-02,  avg # of iterations =  2.0

     Threshold (ethr) on eigenvalues was too large:
     Diagonalizing with lowered threshold

     Davidson diagonalization with overlap

[...]

     total energy              =   -1297.30365144 Ry
     estimated scf accuracy    <       1.45185984 Ry

[...]

     total energy              =   -1297.31896812 Ry
     estimated scf accuracy    <       0.00000002 Ry

     iteration #  8     ecut=    20.00 Ry     beta= 0.70
     Davidson diagonalization with overlap

     ethr =  1.20E-11,  avg # of iterations =  2.0

     End of self-consistent calculation

          k = 0.2500 0.4330 0.0997 (  2660 PWs)   bands (ev):

   -21.9938 -21.9069 -21.7841 -21.6906 -21.6409 -21.6062 -21.3480 -21.3347
   -21.3192 -21.2652 -21.2561 -21.1691 -21.1521 -21.1136 -21.0847 -21.0159
   -21.0059 -20.9776  -5.1162  -4.8861  -4.6029  -4.3659  -4.2835  -4.2753
    -3.3857  -3.2046  -3.1488  -3.0945  -2.9490  -2.8992  -2.7306  -2.5749
    -2.5157  -2.3358  -2.2201  -2.1823  -2.0598  -2.0434  -2.0151  -1.7899
    -1.5322  -1.5277  -1.4486  -1.1574  -1.0981  -1.0378  -0.9612  -0.9073
    -0.8426  -0.6313  -0.6011  -0.5325  -0.4411  -0.3991  -0.3973  -0.3038
    -0.2799  -0.1894  -0.1001  -0.0366  -0.0059   0.0878   0.1280   0.2794
     0.2860   0.3094   0.3303   0.3728   0.4303   0.4329   0.5646   0.5776

     occupation numbers
     1.0000   1.0000   1.0000   1.0000   1.0000   1.0000   1.0000   1.0000
     1.0000   1.0000   1.0000   1.0000   1.0000   1.0000   1.0000   1.0000
     1.0000   1.0000   1.0000   1.0000   1.0000   1.0000   1.0000   1.0000
     1.0000   1.0000   1.0000   1.0000   1.0000   1.0000   1.0000   1.0000
     1.0000   1.0000   1.0000   1.0000   1.0000   1.0000   1.0000   1.0000
     1.0000   1.0000   1.0000   1.0000   1.0000   1.0000   1.0000   1.0000
     1.0000   1.0000   1.0000   1.0000   1.0000   1.0000   1.0000   1.0000
     1.0000   1.0000   1.0000   1.0000   1.0000   1.0000   1.0000   1.0000
     1.0000   1.0000   1.0000   1.0000   1.0000   1.0000   1.0000   1.0000

          k = 0.2500-0.1443 0.0997 (  2666 PWs)   bands (ev):

[...]

          k =-0.2500-0.4330 0.0997 (  2660 PWs)   bands (ev):

[...]

          k =-0.2500 0.1443 0.0997 (  2666 PWs)   bands (ev):

   -22.2158 -22.1070 -21.8998 -21.6880 -21.4655 -21.4127 -21.3339 -21.3153
   -21.2576 -21.2560 -21.2406 -21.1861 -21.1573 -21.0643 -21.0506 -21.0149
   -21.0138 -20.9461  -5.6721  -5.3174  -4.7891  -4.3675  -4.1278  -3.6634
    -3.5485  -3.4825  -3.4057  -3.3469  -3.2361  -2.7536  -2.6255  -2.4779
    -2.4556  -2.2342  -2.1860  -2.1302  -2.0193  -1.9019  -1.8623  -1.8351
    -1.8131  -1.7151  -1.5525  -1.4645  -1.3967  -0.9609  -0.9216  -0.5977
    -0.5542  -0.5360  -0.5251  -0.3880  -0.3762  -0.3761  -0.2705  -0.2108
    -0.1437  -0.0390  -0.0264   0.0510   0.0700   0.1084   0.1086   0.1410
     0.3032   0.3414   0.3806   0.4118   0.4378   0.5455   0.5521   0.5669

     occupation numbers
     1.0000   1.0000   1.0000   1.0000   1.0000   1.0000   1.0000   1.0000
     1.0000   1.0000   1.0000   1.0000   1.0000   1.0000   1.0000   1.0000
     1.0000   1.0000   1.0000   1.0000   1.0000   1.0000   1.0000   1.0000
     1.0000   1.0000   1.0000   1.0000   1.0000   1.0000   1.0000   1.0000
     1.0000   1.0000   1.0000   1.0000   1.0000   1.0000   1.0000   1.0000
     1.0000   1.0000   1.0000   1.0000   1.0000   1.0000   1.0000   1.0000
     1.0000   1.0000   1.0000   1.0000   1.0000   1.0000   1.0000   1.0000
     1.0000   1.0000   1.0000   1.0000   1.0000   1.0000   1.0000   1.0000
     1.0000   1.0000   1.0000   1.0000   1.0000   1.0000   1.0000   1.0000

     highest occupied level (ev):     0.6522

!    total energy              =   -1297.31896812 Ry

     total all-electron energy =     -6501.604626 Ry
     estimated scf accuracy    <          1.4E-09 Ry

     The total energy is the sum of the following terms:
     one-electron contribution =    -418.39325175 Ry
     hartree contribution      =     295.80423545 Ry
     xc contribution           =    -187.17697700 Ry
     ewald contribution        =    -579.70379323 Ry
     one-center paw contrib.   =    -407.84918159 Ry
      -> PAW hartree energy AE =      14.72626115 Ry
      -> PAW hartree energy PS =     -14.71117203 Ry
      -> PAW xc energy AE      =    -222.00690156 Ry
      -> PAW xc energy PS      =      14.14234156 Ry
      -> total E_H with PAW    =     295.81932457 Ry
      -> total E_XC with PAW   =    -395.04153699 Ry

     convergence has been achieved in   8 iterations

     Writing output data file ./tmp/AlF3.save/

     General routines

     Parallel routines

     PAW routines

   This run was terminated on:  12:11:46  16Jul2025

   JOB DONE.