     Program PWSCF v.6.8 starts on 16Jul2025 at 13:41: 6

     R & G space division:  proc/nbgrp/npool/nimage =       4

     Reading input from AlF3.scf.in_50Ry

     Current dimensions of program PWSCF are:
     Max number of different atomic species (ntypx) = 10
     Max number of k-points (npk) =  40000
     Max angular momentum in pseudopotentials (lmaxx) =  4
     file Al.pbe-n-kjpaw_psl.1.0.0.UPF: wavefunction(s)  3S 3P renormalized
     file F.pbe-n-kjpaw_psl.1.0.0.UPF: wavefunction(s)  2S 2P renormalized
     Found symmetry operation: I + ( -0.3333  0.3333  0.3333)
     This is a supercell, fractional translations are disabled
     Message from routine setup:
     using ibrav=0 with symmetry is DISCOURAGED, use correct ibrav instead

     Subspace diagonalization in iterative solution of the eigenvalue problem:
     a serial algorithm will be used

     Using Slab Decomposition

     bravais-lattice index     =            0
     lattice parameter (alat)  =       9.3253  a.u.
     unit-cell volume          =    1761.8156 (a.u.)^3
     number of atoms/cell      =           24
     number of atomic types    =            2
     number of electrons       =       144.00
     number of Kohn-Sham states=           72
     kinetic-energy cutoff     =      50.0000  Ry
     charge density cutoff     =     200.0000  Ry
     scf convergence threshold =      1.0E-08
     mixing beta               =       0.7000
     number of iterations used =            8  plain     mixing
     Exchange-correlation= SLA  PW   PBX  PBC
                           (   1   4   3   4   0   0   0)

     celldm(1)=   9.325347  celldm(2)=   0.000000  celldm(3)=   0.000000
     celldm(4)=   0.000000  celldm(5)=   0.000000  celldm(6)=   0.000000

     crystal axes: (cart. coord. in units of alat)
               a(1) = (   1.000000   0.000000   0.000000 )
               a(2) = (  -0.500000   0.866025   0.000000 )
               a(3) = (   0.000000   0.000000   2.508620 )

     reciprocal axes: (cart. coord. in units 2 pi/alat)
               b(1) = (  1.000000  0.577350 -0.000000 )
               b(2) = (  0.000000  1.154701  0.000000 )
               b(3) = (  0.000000 -0.000000  0.398626 )

     PseudoPot. # 1 for Al read from file:
     ../../Pseudo/Al.pbe-n-kjpaw_psl.1.0.0.UPF
     MD5 check sum: 52edf3c3f0a11d3bd4e10b4aee4665d0
     Pseudo is Projector augmented-wave + core cor, Zval =  3.0
     Generated using &quot;atomic&quot; code by A. Dal Corso  v.6.3
     Shape of augmentation charge: PSQ
     Using radial grid of 1135 points,  6 beta functions with:
                l(1) =   0
                l(2) =   0
                l(3) =   1
                l(4) =   1
                l(5) =   2
                l(6) =   2
     Q(r) pseudized with 0 coefficients

     PseudoPot. # 2 for F  read from file:
     ../../Pseudo/F.pbe-n-kjpaw_psl.1.0.0.UPF
     MD5 check sum: 3189b5d740a3f1e0650252e1c324aeb8
     Pseudo is Projector augmented-wave + core cor, Zval =  7.0
     Generated using &quot;atomic&quot; code by A. Dal Corso  v.6.3
     Shape of augmentation charge: PSQ
     Using radial grid of 1105 points,  4 beta functions with:
                l(1) =   0
                l(2) =   0
                l(3) =   1
                l(4) =   1
     Q(r) pseudized with 0 coefficients

     atomic species   valence    mass     pseudopotential
        Al             3.00    26.98154     Al( 1.00)
        F              7.00    18.99840     F ( 1.00)

      6 Sym. Ops., with inversion, found

                                    s                        frac. trans.

      isym =  1     identity

 cryst.   s( 1) = (     1          0          0      )
                  (     0          1          0      )
                  (     0          0          1      )

 cart.    s( 1) = (  1.0000000  0.0000000  0.0000000 )
                  (  0.0000000  1.0000000  0.0000000 )
                  (  0.0000000  0.0000000  1.0000000 )

      isym =  2     120 deg rotation - cryst. axis [0,0,1]

[...]

      isym =  3     120 deg rotation - cryst. axis [0,0,-1]

[...]

      isym =  4     inversion

[...]

      isym =  5     inv. 120 deg rotation - cryst. axis [0,0,1]

[...]

      isym =  6     inv. 120 deg rotation - cryst. axis [0,0,-1]

 cryst.   s( 6) = (     1          1          0      )
                  (    -1          0          0      )
                  (     0          0         -1      )

 cart.    s( 6) = (  0.5000000 -0.8660254  0.0000000 )
                  (  0.8660254  0.5000000  0.0000000 )
                  (  0.0000000  0.0000000 -1.0000000 )

   Cartesian axes

     site n.     atom                  positions (alat units)
         1           Al  tau(   1) = (   0.0000000   0.0000000   0.0000000  )
         2           Al  tau(   2) = (   0.0000000   0.0000000   1.2543099  )
         3           Al  tau(   3) = (   0.5000000   0.2886751   0.8362066  )
         4           Al  tau(   4) = (   0.5000000   0.2886751   2.0905165  )
         5           Al  tau(   5) = (   0.0000000   0.5773503   1.6724132  )
         6           Al  tau(   6) = (   0.0000000   0.5773503   0.4181033  )
         7           F   tau(   7) = (   0.4252100   0.0000000   0.6271549  )
         8           F   tau(   8) = (  -0.2126050   0.3682427   0.6271549  )
         9           F   tau(   9) = (   0.2873950   0.4977827   0.6271549  )
        10           F   tau(  10) = (   0.5747900   0.0000000   1.8814648  )
        11           F   tau(  11) = (  -0.2873950   0.4977827   1.8814648  )
        12           F   tau(  12) = (   0.2126050   0.3682427   1.8814648  )
        13           F   tau(  13) = (  -0.0747900   0.2886751   1.4633615  )
        14           F   tau(  14) = (   0.2873950   0.6569178   1.4633615  )
        15           F   tau(  15) = (  -0.2126050   0.7864579   1.4633615  )
        16           F   tau(  16) = (   0.0747900   0.2886751   0.2090516  )
        17           F   tau(  17) = (   0.2126050   0.7864579   0.2090516  )
        18           F   tau(  18) = (  -0.2873950   0.6569178   0.2090516  )
        19           F   tau(  19) = (   0.4252100   0.5773503   2.2995681  )
        20           F   tau(  20) = (   0.2873950   0.0795675   2.2995681  )
        21           F   tau(  21) = (   0.7873950   0.2091076   2.2995681  )
        22           F   tau(  22) = (   0.5747900   0.5773503   1.0452582  )
        23           F   tau(  23) = (   0.2126050   0.2091076   1.0452582  )
        24           F   tau(  24) = (   0.7126050   0.0795675   1.0452582  )

   Crystallographic axes

     site n.     atom                  positions (cryst. coord.)
         1           Al  tau(   1) = (  0.0000000  0.0000000  0.0000000  )
         2           Al  tau(   2) = (  0.0000000  0.0000000  0.5000000  )
         3           Al  tau(   3) = (  0.6666667  0.3333333  0.3333333  )
         4           Al  tau(   4) = (  0.6666667  0.3333333  0.8333333  )
         5           Al  tau(   5) = (  0.3333333  0.6666667  0.6666667  )
         6           Al  tau(   6) = (  0.3333333  0.6666667  0.1666667  )
         7           F   tau(   7) = (  0.4252100  0.0000000  0.2500000  )
         8           F   tau(   8) = (  0.0000000  0.4252100  0.2500000  )
         9           F   tau(   9) = (  0.5747900  0.5747900  0.2500000  )
        10           F   tau(  10) = (  0.5747900  0.0000000  0.7500000  )
        11           F   tau(  11) = ( -0.0000000  0.5747900  0.7500000  )
        12           F   tau(  12) = (  0.4252100  0.4252100  0.7500000  )
        13           F   tau(  13) = (  0.0918767  0.3333333  0.5833333  )
        14           F   tau(  14) = (  0.6666667  0.7585433  0.5833333  )
        15           F   tau(  15) = (  0.2414567  0.9081233  0.5833333  )
        16           F   tau(  16) = (  0.2414567  0.3333333  0.0833333  )
        17           F   tau(  17) = (  0.6666667  0.9081233  0.0833333  )
        18           F   tau(  18) = (  0.0918767  0.7585433  0.0833333  )
        19           F   tau(  19) = (  0.7585433  0.6666667  0.9166667  )
        20           F   tau(  20) = (  0.3333333  0.0918767  0.9166667  )
        21           F   tau(  21) = (  0.9081233  0.2414567  0.9166667  )
        22           F   tau(  22) = (  0.9081233  0.6666667  0.4166667  )
        23           F   tau(  23) = (  0.3333333  0.2414567  0.4166667  )
        24           F   tau(  24) = (  0.7585433  0.0918767  0.4166667  )

     number of k points=     4
                       cart. coord. in units 2pi/alat
        k(    1) = (   0.2500000   0.4330127   0.0996564), wk =   0.5000000
        k(    2) = (   0.2500000  -0.1443376   0.0996564), wk =   0.5000000
        k(    3) = (  -0.2500000  -0.4330127   0.0996564), wk =   0.5000000
        k(    4) = (  -0.2500000   0.1443376   0.0996564), wk =   0.5000000

                       cryst. coord.
        k(    1) = (   0.2500000   0.2500000   0.2500000), wk =   0.5000000
        k(    2) = (   0.2500000  -0.2500000   0.2500000), wk =   0.5000000
        k(    3) = (  -0.2500000  -0.2500000   0.2500000), wk =   0.5000000
        k(    4) = (  -0.2500000   0.2500000   0.2500000), wk =   0.5000000

     Check: negative core charge=   -0.000011

     Initial potential from superposition of free atoms

     starting charge  143.98625, renormalised to  144.00000
     Starting wfcs are   96 randomized atomic wfcs
     Checking if some PAW data can be deallocated...

     Self-consistent Calculation

     iteration #  1     ecut=    50.00 Ry     beta= 0.70
     Davidson diagonalization with overlap

     ethr =  1.00E-02,  avg # of iterations =  2.0

     total energy              =   -1307.79289836 Ry
     estimated scf accuracy    <       2.65978909 Ry

[...]

     total energy              =   -1308.95458129 Ry
     estimated scf accuracy    <       0.00000002 Ry

     iteration # 10     ecut=    50.00 Ry     beta= 0.70
     Davidson diagonalization with overlap

     ethr =  1.37E-11,  avg # of iterations =  4.5

     End of self-consistent calculation

          k = 0.2500 0.4330 0.0997 ( 10492 PWs)   bands (ev):

   -20.4228 -20.3303 -20.1853 -20.0738 -20.0236 -19.9831 -19.6901 -19.6704
   -19.6543 -19.6004 -19.5904 -19.4805 -19.4679 -19.4189 -19.3832 -19.3023
   -19.2936 -19.2666  -4.9361  -4.7169  -4.3794  -4.1437  -4.0933  -4.0684
    -3.1608  -2.9851  -2.9460  -2.9181  -2.7607  -2.6894  -2.4896  -2.3100
    -2.2849  -1.9927  -1.9471  -1.8932  -1.8778  -1.8677  -1.8459  -1.6294
    -1.3218  -1.3064  -1.2215  -0.9002  -0.8628  -0.8308  -0.7104  -0.6960
    -0.6597  -0.3839  -0.3427  -0.2656  -0.1765  -0.1468  -0.1177   0.0187
     0.0484   0.0666   0.1297   0.1817   0.1907   0.2633   0.2716   0.4372
     0.4412   0.4633   0.4971   0.5160   0.5728   0.6892   0.7503   0.7826

     occupation numbers
     1.0000   1.0000   1.0000   1.0000   1.0000   1.0000   1.0000   1.0000
     1.0000   1.0000   1.0000   1.0000   1.0000   1.0000   1.0000   1.0000
     1.0000   1.0000   1.0000   1.0000   1.0000   1.0000   1.0000   1.0000
     1.0000   1.0000   1.0000   1.0000   1.0000   1.0000   1.0000   1.0000
     1.0000   1.0000   1.0000   1.0000   1.0000   1.0000   1.0000   1.0000
     1.0000   1.0000   1.0000   1.0000   1.0000   1.0000   1.0000   1.0000
     1.0000   1.0000   1.0000   1.0000   1.0000   1.0000   1.0000   1.0000
     1.0000   1.0000   1.0000   1.0000   1.0000   1.0000   1.0000   1.0000
     1.0000   1.0000   1.0000   1.0000   1.0000   1.0000   1.0000   1.0000

          k = 0.2500-0.1443 0.0997 ( 10530 PWs)   bands (ev):

[...]

          k =-0.2500-0.4330 0.0997 ( 10492 PWs)   bands (ev):

[...]

          k =-0.2500 0.1443 0.0997 ( 10530 PWs)   bands (ev):

   -20.6745 -20.5519 -20.3073 -20.0761 -19.8135 -19.7545 -19.6693 -19.6469
   -19.5903 -19.5685 -19.5542 -19.5180 -19.4812 -19.3658 -19.3428 -19.2984
   -19.2930 -19.2201  -5.5032  -5.1828  -4.5983  -4.1666  -3.8733  -3.5185
    -3.3335  -3.2762  -3.1719  -3.1715  -3.0547  -2.5422  -2.4137  -2.1963
    -2.1075  -2.0900  -1.9206  -1.8578  -1.7604  -1.6590  -1.5681  -1.5638
    -1.5317  -1.5118  -1.4046  -1.2640  -1.2023  -0.6405  -0.6177  -0.3626
    -0.3211  -0.2852  -0.2444  -0.2046  -0.1719  -0.1088  -0.0911  -0.0586
    -0.0093   0.2800   0.3125   0.3179   0.3371   0.3632   0.4067   0.4460
     0.4503   0.5214   0.5685   0.6080   0.6179   0.8343   0.8644   0.8681

     occupation numbers
     1.0000   1.0000   1.0000   1.0000   1.0000   1.0000   1.0000   1.0000
     1.0000   1.0000   1.0000   1.0000   1.0000   1.0000   1.0000   1.0000
     1.0000   1.0000   1.0000   1.0000   1.0000   1.0000   1.0000   1.0000
     1.0000   1.0000   1.0000   1.0000   1.0000   1.0000   1.0000   1.0000
     1.0000   1.0000   1.0000   1.0000   1.0000   1.0000   1.0000   1.0000
     1.0000   1.0000   1.0000   1.0000   1.0000   1.0000   1.0000   1.0000
     1.0000   1.0000   1.0000   1.0000   1.0000   1.0000   1.0000   1.0000
     1.0000   1.0000   1.0000   1.0000   1.0000   1.0000   1.0000   1.0000
     1.0000   1.0000   1.0000   1.0000   1.0000   1.0000   1.0000   1.0000

     highest occupied level (ev):     0.9210

!    total energy              =   -1308.95458130 Ry

     total all-electron energy =     -6513.240239 Ry
     estimated scf accuracy    <          9.2E-09 Ry

     The total energy is the sum of the following terms:
     one-electron contribution =    -443.58442349 Ry
     hartree contribution      =     314.17273403 Ry
     xc contribution           =    -190.79528081 Ry
     ewald contribution        =    -579.70379324 Ry
     one-center paw contrib.   =    -409.04381780 Ry
      -> PAW hartree energy AE =      14.91362355 Ry
      -> PAW hartree energy PS =     -14.89796345 Ry
      -> PAW xc energy AE      =    -222.10108368 Ry
      -> PAW xc energy PS      =      14.23482263 Ry
      -> total E_H with PAW    =     314.18839414 Ry
      -> total E_XC with PAW   =    -398.66154186 Ry

     convergence has been achieved in  10 iterations

     Writing output data file ./tmp/AlF3.save/

     General routines

     Parallel routines

     PAW routines

   This run was terminated on:  13:45:49  16Jul2025

   JOB DONE.