     Program PWSCF v.6.8 starts on 16Jul2025 at 18:54: 2

     R & G space division:  proc/nbgrp/npool/nimage =       4

     Reading input from AlF3.scf.in_6x6x6

     Current dimensions of program PWSCF are:
     Max number of different atomic species (ntypx) = 10
     Max number of k-points (npk) =  40000
     Max angular momentum in pseudopotentials (lmaxx) =  4
     file Al.pbe-n-kjpaw_psl.1.0.0.UPF: wavefunction(s)  3S 3P renormalized
     file F.pbe-n-kjpaw_psl.1.0.0.UPF: wavefunction(s)  2S 2P renormalized
     Found symmetry operation: I + ( -0.3333  0.3333  0.3333)
     This is a supercell, fractional translations are disabled
     Message from routine setup:
     using ibrav=0 with symmetry is DISCOURAGED, use correct ibrav instead

     Subspace diagonalization in iterative solution of the eigenvalue problem:
     a serial algorithm will be used

     Using Slab Decomposition

     bravais-lattice index     =            0
     lattice parameter (alat)  =       9.3253  a.u.
     unit-cell volume          =    1761.8156 (a.u.)^3
     number of atoms/cell      =           24
     number of atomic types    =            2
     number of electrons       =       144.00
     number of Kohn-Sham states=           72
     kinetic-energy cutoff     =     100.0000  Ry
     charge density cutoff     =     800.0000  Ry
     scf convergence threshold =      1.0E-08
     mixing beta               =       0.7000
     number of iterations used =            8  plain     mixing
     Exchange-correlation= SLA  PW   PBX  PBC
                           (   1   4   3   4   0   0   0)

     celldm(1)=   9.325347  celldm(2)=   0.000000  celldm(3)=   0.000000
     celldm(4)=   0.000000  celldm(5)=   0.000000  celldm(6)=   0.000000

     crystal axes: (cart. coord. in units of alat)
               a(1) = (   1.000000   0.000000   0.000000 )
               a(2) = (  -0.500000   0.866025   0.000000 )
               a(3) = (   0.000000   0.000000   2.508620 )

     reciprocal axes: (cart. coord. in units 2 pi/alat)
               b(1) = (  1.000000  0.577350 -0.000000 )
               b(2) = (  0.000000  1.154701  0.000000 )
               b(3) = (  0.000000 -0.000000  0.398626 )

     PseudoPot. # 1 for Al read from file:
     ../../Pseudo/Al.pbe-n-kjpaw_psl.1.0.0.UPF
     MD5 check sum: 52edf3c3f0a11d3bd4e10b4aee4665d0
     Pseudo is Projector augmented-wave + core cor, Zval =  3.0
     Generated using &quot;atomic&quot; code by A. Dal Corso  v.6.3
     Shape of augmentation charge: PSQ
     Using radial grid of 1135 points,  6 beta functions with:
                l(1) =   0
                l(2) =   0
                l(3) =   1
                l(4) =   1
                l(5) =   2
                l(6) =   2
     Q(r) pseudized with 0 coefficients

     PseudoPot. # 2 for F  read from file:
     ../../Pseudo/F.pbe-n-kjpaw_psl.1.0.0.UPF
     MD5 check sum: 3189b5d740a3f1e0650252e1c324aeb8
     Pseudo is Projector augmented-wave + core cor, Zval =  7.0
     Generated using &quot;atomic&quot; code by A. Dal Corso  v.6.3
     Shape of augmentation charge: PSQ
     Using radial grid of 1105 points,  4 beta functions with:
                l(1) =   0
                l(2) =   0
                l(3) =   1
                l(4) =   1
     Q(r) pseudized with 0 coefficients

     atomic species   valence    mass     pseudopotential
        Al             3.00    26.98154     Al( 1.00)
        F              7.00    18.99840     F ( 1.00)

      6 Sym. Ops., with inversion, found

                                    s                        frac. trans.

      isym =  1     identity

 cryst.   s( 1) = (     1          0          0      )
                  (     0          1          0      )
                  (     0          0          1      )

 cart.    s( 1) = (  1.0000000  0.0000000  0.0000000 )
                  (  0.0000000  1.0000000  0.0000000 )
                  (  0.0000000  0.0000000  1.0000000 )

      isym =  2     120 deg rotation - cryst. axis [0,0,1]

[...]

      isym =  3     120 deg rotation - cryst. axis [0,0,-1]

[...]

      isym =  4     inversion

[...]

      isym =  5     inv. 120 deg rotation - cryst. axis [0,0,1]

[...]

      isym =  6     inv. 120 deg rotation - cryst. axis [0,0,-1]

 cryst.   s( 6) = (     1          1          0      )
                  (    -1          0          0      )
                  (     0          0         -1      )

 cart.    s( 6) = (  0.5000000 -0.8660254  0.0000000 )
                  (  0.8660254  0.5000000  0.0000000 )
                  (  0.0000000  0.0000000 -1.0000000 )

   Cartesian axes

     site n.     atom                  positions (alat units)
         1           Al  tau(   1) = (   0.0000000   0.0000000   0.0000000  )
         2           Al  tau(   2) = (   0.0000000   0.0000000   1.2543099  )
         3           Al  tau(   3) = (   0.5000000   0.2886751   0.8362066  )
         4           Al  tau(   4) = (   0.5000000   0.2886751   2.0905165  )
         5           Al  tau(   5) = (   0.0000000   0.5773503   1.6724132  )
         6           Al  tau(   6) = (   0.0000000   0.5773503   0.4181033  )
         7           F   tau(   7) = (   0.4252100   0.0000000   0.6271549  )
         8           F   tau(   8) = (  -0.2126050   0.3682427   0.6271549  )
         9           F   tau(   9) = (   0.2873950   0.4977827   0.6271549  )
        10           F   tau(  10) = (   0.5747900   0.0000000   1.8814648  )
        11           F   tau(  11) = (  -0.2873950   0.4977827   1.8814648  )
        12           F   tau(  12) = (   0.2126050   0.3682427   1.8814648  )
        13           F   tau(  13) = (  -0.0747900   0.2886751   1.4633615  )
        14           F   tau(  14) = (   0.2873950   0.6569178   1.4633615  )
        15           F   tau(  15) = (  -0.2126050   0.7864579   1.4633615  )
        16           F   tau(  16) = (   0.0747900   0.2886751   0.2090516  )
        17           F   tau(  17) = (   0.2126050   0.7864579   0.2090516  )
        18           F   tau(  18) = (  -0.2873950   0.6569178   0.2090516  )
        19           F   tau(  19) = (   0.4252100   0.5773503   2.2995681  )
        20           F   tau(  20) = (   0.2873950   0.0795675   2.2995681  )
        21           F   tau(  21) = (   0.7873950   0.2091076   2.2995681  )
        22           F   tau(  22) = (   0.5747900   0.5773503   1.0452582  )
        23           F   tau(  23) = (   0.2126050   0.2091076   1.0452582  )
        24           F   tau(  24) = (   0.7126050   0.0795675   1.0452582  )

   Crystallographic axes

     site n.     atom                  positions (cryst. coord.)
         1           Al  tau(   1) = (  0.0000000  0.0000000  0.0000000  )
         2           Al  tau(   2) = (  0.0000000  0.0000000  0.5000000  )
         3           Al  tau(   3) = (  0.6666667  0.3333333  0.3333333  )
         4           Al  tau(   4) = (  0.6666667  0.3333333  0.8333333  )
         5           Al  tau(   5) = (  0.3333333  0.6666667  0.6666667  )
         6           Al  tau(   6) = (  0.3333333  0.6666667  0.1666667  )
         7           F   tau(   7) = (  0.4252100  0.0000000  0.2500000  )
         8           F   tau(   8) = (  0.0000000  0.4252100  0.2500000  )
         9           F   tau(   9) = (  0.5747900  0.5747900  0.2500000  )
        10           F   tau(  10) = (  0.5747900  0.0000000  0.7500000  )
        11           F   tau(  11) = ( -0.0000000  0.5747900  0.7500000  )
        12           F   tau(  12) = (  0.4252100  0.4252100  0.7500000  )
        13           F   tau(  13) = (  0.0918767  0.3333333  0.5833333  )
        14           F   tau(  14) = (  0.6666667  0.7585433  0.5833333  )
        15           F   tau(  15) = (  0.2414567  0.9081233  0.5833333  )
        16           F   tau(  16) = (  0.2414567  0.3333333  0.0833333  )
        17           F   tau(  17) = (  0.6666667  0.9081233  0.0833333  )
        18           F   tau(  18) = (  0.0918767  0.7585433  0.0833333  )
        19           F   tau(  19) = (  0.7585433  0.6666667  0.9166667  )
        20           F   tau(  20) = (  0.3333333  0.0918767  0.9166667  )
        21           F   tau(  21) = (  0.9081233  0.2414567  0.9166667  )
        22           F   tau(  22) = (  0.9081233  0.6666667  0.4166667  )
        23           F   tau(  23) = (  0.3333333  0.2414567  0.4166667  )
        24           F   tau(  24) = (  0.7585433  0.0918767  0.4166667  )

     number of k points=   108
                       cart. coord. in units 2pi/alat
        k(    1) = (   0.0833333   0.1443376   0.0332188), wk =   0.0185185
        k(    2) = (   0.0833333   0.1443376   0.0996564), wk =   0.0185185
        k(    3) = (   0.0833333   0.1443376   0.1660940), wk =   0.0185185
        k(    4) = (   0.0833333   0.3367877   0.0332188), wk =   0.0185185
        k(    5) = (   0.0833333   0.3367877   0.0996564), wk =   0.0185185
        k(    6) = (   0.0833333   0.3367877   0.1660940), wk =   0.0185185
        k(    7) = (   0.0833333   0.5292377   0.0332188), wk =   0.0185185
        k(    8) = (   0.0833333   0.5292377   0.0996564), wk =   0.0185185
        k(    9) = (   0.0833333   0.5292377   0.1660940), wk =   0.0185185
        k(   10) = (   0.0833333  -0.4330127   0.0332188), wk =   0.0185185
        k(   11) = (   0.0833333  -0.4330127   0.0996564), wk =   0.0185185
        k(   12) = (   0.0833333  -0.4330127   0.1660940), wk =   0.0185185
        k(   13) = (   0.0833333  -0.2405626   0.0332188), wk =   0.0185185
        k(   14) = (   0.0833333  -0.2405626   0.0996564), wk =   0.0185185
        k(   15) = (   0.0833333  -0.2405626   0.1660940), wk =   0.0185185
        k(   16) = (   0.0833333  -0.0481125   0.0332188), wk =   0.0185185
        k(   17) = (   0.0833333  -0.0481125   0.0996564), wk =   0.0185185
        k(   18) = (   0.0833333  -0.0481125   0.1660940), wk =   0.0185185
        k(   19) = (   0.2500000   0.4330127   0.0332188), wk =   0.0185185
        k(   20) = (   0.2500000   0.4330127   0.0996564), wk =   0.0185185
        k(   21) = (   0.2500000   0.4330127   0.1660940), wk =   0.0185185
        k(   22) = (   0.2500000   0.6254628   0.0332188), wk =   0.0185185
        k(   23) = (   0.2500000   0.6254628   0.0996564), wk =   0.0185185
        k(   24) = (   0.2500000   0.6254628   0.1660940), wk =   0.0185185
        k(   25) = (   0.2500000  -0.3367877   0.0332188), wk =   0.0185185
        k(   26) = (   0.2500000  -0.3367877   0.0996564), wk =   0.0185185
        k(   27) = (   0.2500000  -0.3367877   0.1660940), wk =   0.0185185
        k(   28) = (   0.2500000  -0.1443376   0.0332188), wk =   0.0185185
        k(   29) = (   0.2500000  -0.1443376   0.0996564), wk =   0.0185185
        k(   30) = (   0.2500000  -0.1443376   0.1660940), wk =   0.0185185
        k(   31) = (   0.4166667   0.7216878   0.0332188), wk =   0.0185185
        k(   32) = (   0.4166667   0.7216878   0.0996564), wk =   0.0185185
        k(   33) = (   0.4166667   0.7216878   0.1660940), wk =   0.0185185
        k(   34) = (   0.4166667  -0.2405626   0.0332188), wk =   0.0185185
        k(   35) = (   0.4166667  -0.2405626   0.0996564), wk =   0.0185185
        k(   36) = (   0.4166667  -0.2405626   0.1660940), wk =   0.0185185
        k(   37) = (  -0.0833333  -0.1443376   0.0332188), wk =   0.0185185
        k(   38) = (  -0.0833333  -0.1443376   0.0996564), wk =   0.0185185
        k(   39) = (  -0.0833333  -0.1443376   0.1660940), wk =   0.0185185
        k(   40) = (  -0.0833333  -0.3367877   0.0332188), wk =   0.0185185
        k(   41) = (  -0.0833333   0.3367877  -0.0332188), wk =   0.0185185
        k(   42) = (  -0.3333333   0.0962250  -0.0332188), wk =   0.0185185
        k(   43) = (  -0.0833333  -0.3367877   0.0996564), wk =   0.0185185
        k(   44) = (  -0.0833333   0.3367877  -0.0996564), wk =   0.0185185
        k(   45) = (  -0.3333333   0.0962250  -0.0996564), wk =   0.0185185
        k(   46) = (  -0.0833333  -0.3367877   0.1660940), wk =   0.0185185
        k(   47) = (  -0.0833333   0.3367877  -0.1660940), wk =   0.0185185
        k(   48) = (  -0.3333333   0.0962250  -0.1660940), wk =   0.0185185
        k(   49) = (  -0.0833333  -0.5292377   0.0332188), wk =   0.0185185
        k(   50) = (  -0.0833333   0.5292377  -0.0332188), wk =   0.0185185
        k(   51) = (  -0.5000000   0.1924501  -0.0332188), wk =   0.0185185
        k(   52) = (  -0.0833333  -0.5292377   0.0996564), wk =   0.0185185
        k(   53) = (  -0.0833333   0.5292377  -0.0996564), wk =   0.0185185
        k(   54) = (  -0.5000000   0.1924501  -0.0996564), wk =   0.0185185
        k(   55) = (  -0.0833333  -0.5292377   0.1660940), wk =   0.0185185
        k(   56) = (  -0.0833333   0.5292377  -0.1660940), wk =   0.0185185
        k(   57) = (  -0.5000000   0.1924501  -0.1660940), wk =   0.0185185
        k(   58) = (  -0.0833333   0.4330127   0.0332188), wk =   0.0185185
        k(   59) = (  -0.0833333  -0.4330127  -0.0332188), wk =   0.0185185
        k(   60) = (   0.3333333  -0.2886751  -0.0332188), wk =   0.0185185
[...]
        k(   94) = (  -0.2500000   0.3367877   0.0996564), wk =   0.0185185
        k(   95) = (  -0.2500000  -0.3367877  -0.0996564), wk =   0.0185185
        k(   96) = (   0.1666667  -0.3849002  -0.0996564), wk =   0.0185185
        k(   97) = (  -0.2500000   0.3367877   0.1660940), wk =   0.0185185
        k(   98) = (  -0.2500000  -0.3367877  -0.1660940), wk =   0.0185185
        k(   99) = (   0.1666667  -0.3849002  -0.1660940), wk =   0.0185185
        k(  100) = (  -0.2500000   0.1443376   0.0332188), wk =   0.0185185
        k(  101) = (  -0.2500000   0.1443376   0.0996564), wk =   0.0185185
        k(  102) = (  -0.2500000   0.1443376   0.1660940), wk =   0.0185185
        k(  103) = (  -0.4166667  -0.7216878   0.0332188), wk =   0.0185185
        k(  104) = (  -0.4166667  -0.7216878   0.0996564), wk =   0.0185185
        k(  105) = (  -0.4166667  -0.7216878   0.1660940), wk =   0.0185185
        k(  106) = (  -0.4166667   0.2405626   0.0332188), wk =   0.0185185
        k(  107) = (  -0.4166667   0.2405626   0.0996564), wk =   0.0185185
        k(  108) = (  -0.4166667   0.2405626   0.1660940), wk =   0.0185185

                       cryst. coord.
        k(    1) = (   0.0833333   0.0833333   0.0833333), wk =   0.0185185
        k(    2) = (   0.0833333   0.0833333   0.2500000), wk =   0.0185185
        k(    3) = (   0.0833333   0.0833333   0.4166667), wk =   0.0185185
        k(    4) = (   0.0833333   0.2500000   0.0833333), wk =   0.0185185
        k(    5) = (   0.0833333   0.2500000   0.2500000), wk =   0.0185185
        k(    6) = (   0.0833333   0.2500000   0.4166667), wk =   0.0185185
        k(    7) = (   0.0833333   0.4166667   0.0833333), wk =   0.0185185
        k(    8) = (   0.0833333   0.4166667   0.2500000), wk =   0.0185185
        k(    9) = (   0.0833333   0.4166667   0.4166667), wk =   0.0185185
        k(   10) = (   0.0833333  -0.4166667   0.0833333), wk =   0.0185185
        k(   11) = (   0.0833333  -0.4166667   0.2500000), wk =   0.0185185
        k(   12) = (   0.0833333  -0.4166667   0.4166667), wk =   0.0185185
        k(   13) = (   0.0833333  -0.2500000   0.0833333), wk =   0.0185185
        k(   14) = (   0.0833333  -0.2500000   0.2500000), wk =   0.0185185
        k(   15) = (   0.0833333  -0.2500000   0.4166667), wk =   0.0185185
        k(   16) = (   0.0833333  -0.0833333   0.0833333), wk =   0.0185185
        k(   17) = (   0.0833333  -0.0833333   0.2500000), wk =   0.0185185
        k(   18) = (   0.0833333  -0.0833333   0.4166667), wk =   0.0185185
        k(   19) = (   0.2500000   0.2500000   0.0833333), wk =   0.0185185
        k(   20) = (   0.2500000   0.2500000   0.2500000), wk =   0.0185185
        k(   21) = (   0.2500000   0.2500000   0.4166667), wk =   0.0185185
        k(   22) = (   0.2500000   0.4166667   0.0833333), wk =   0.0185185
        k(   23) = (   0.2500000   0.4166667   0.2500000), wk =   0.0185185
        k(   24) = (   0.2500000   0.4166667   0.4166667), wk =   0.0185185
        k(   25) = (   0.2500000  -0.4166667   0.0833333), wk =   0.0185185
        k(   26) = (   0.2500000  -0.4166667   0.2500000), wk =   0.0185185
        k(   27) = (   0.2500000  -0.4166667   0.4166667), wk =   0.0185185
        k(   28) = (   0.2500000  -0.2500000   0.0833333), wk =   0.0185185
        k(   29) = (   0.2500000  -0.2500000   0.2500000), wk =   0.0185185
        k(   30) = (   0.2500000  -0.2500000   0.4166667), wk =   0.0185185
        k(   31) = (   0.4166667   0.4166667   0.0833333), wk =   0.0185185
        k(   32) = (   0.4166667   0.4166667   0.2500000), wk =   0.0185185
        k(   33) = (   0.4166667   0.4166667   0.4166667), wk =   0.0185185
        k(   34) = (   0.4166667  -0.4166667   0.0833333), wk =   0.0185185
        k(   35) = (   0.4166667  -0.4166667   0.2500000), wk =   0.0185185
        k(   36) = (   0.4166667  -0.4166667   0.4166667), wk =   0.0185185
        k(   37) = (  -0.0833333  -0.0833333   0.0833333), wk =   0.0185185
        k(   38) = (  -0.0833333  -0.0833333   0.2500000), wk =   0.0185185
        k(   39) = (  -0.0833333  -0.0833333   0.4166667), wk =   0.0185185
        k(   40) = (  -0.0833333  -0.2500000   0.0833333), wk =   0.0185185
        k(   41) = (  -0.0833333   0.3333333  -0.0833333), wk =   0.0185185
        k(   42) = (  -0.3333333   0.2500000  -0.0833333), wk =   0.0185185
        k(   43) = (  -0.0833333  -0.2500000   0.2500000), wk =   0.0185185
        k(   44) = (  -0.0833333   0.3333333  -0.2500000), wk =   0.0185185
        k(   45) = (  -0.3333333   0.2500000  -0.2500000), wk =   0.0185185
        k(   46) = (  -0.0833333  -0.2500000   0.4166667), wk =   0.0185185
        k(   47) = (  -0.0833333   0.3333333  -0.4166667), wk =   0.0185185
        k(   48) = (  -0.3333333   0.2500000  -0.4166667), wk =   0.0185185
        k(   49) = (  -0.0833333  -0.4166667   0.0833333), wk =   0.0185185
        k(   50) = (  -0.0833333   0.5000000  -0.0833333), wk =   0.0185185
        k(   51) = (  -0.5000000   0.4166667  -0.0833333), wk =   0.0185185
        k(   52) = (  -0.0833333  -0.4166667   0.2500000), wk =   0.0185185
        k(   53) = (  -0.0833333   0.5000000  -0.2500000), wk =   0.0185185
        k(   54) = (  -0.5000000   0.4166667  -0.2500000), wk =   0.0185185
        k(   55) = (  -0.0833333  -0.4166667   0.4166667), wk =   0.0185185
        k(   56) = (  -0.0833333   0.5000000  -0.4166667), wk =   0.0185185
        k(   57) = (  -0.5000000   0.4166667  -0.4166667), wk =   0.0185185
        k(   58) = (  -0.0833333   0.4166667   0.0833333), wk =   0.0185185
        k(   59) = (  -0.0833333  -0.3333333  -0.0833333), wk =   0.0185185
        k(   60) = (   0.3333333  -0.4166667  -0.0833333), wk =   0.0185185
[...]
        k(   94) = (  -0.2500000   0.4166667   0.2500000), wk =   0.0185185
        k(   95) = (  -0.2500000  -0.1666667  -0.2500000), wk =   0.0185185
        k(   96) = (   0.1666667  -0.4166667  -0.2500000), wk =   0.0185185
        k(   97) = (  -0.2500000   0.4166667   0.4166667), wk =   0.0185185
        k(   98) = (  -0.2500000  -0.1666667  -0.4166667), wk =   0.0185185
        k(   99) = (   0.1666667  -0.4166667  -0.4166667), wk =   0.0185185
        k(  100) = (  -0.2500000   0.2500000   0.0833333), wk =   0.0185185
        k(  101) = (  -0.2500000   0.2500000   0.2500000), wk =   0.0185185
        k(  102) = (  -0.2500000   0.2500000   0.4166667), wk =   0.0185185
        k(  103) = (  -0.4166667  -0.4166667   0.0833333), wk =   0.0185185
        k(  104) = (  -0.4166667  -0.4166667   0.2500000), wk =   0.0185185
        k(  105) = (  -0.4166667  -0.4166667   0.4166667), wk =   0.0185185
        k(  106) = (  -0.4166667   0.4166667   0.0833333), wk =   0.0185185
        k(  107) = (  -0.4166667   0.4166667   0.2500000), wk =   0.0185185
        k(  108) = (  -0.4166667   0.4166667   0.4166667), wk =   0.0185185

     Initial potential from superposition of free atoms

     starting charge  143.98625, renormalised to  144.00000
     Starting wfcs are   96 randomized atomic wfcs
     Checking if some PAW data can be deallocated...

     Self-consistent Calculation

     iteration #  1     ecut=   100.00 Ry     beta= 0.70
     Davidson diagonalization with overlap

     ethr =  1.00E-02,  avg # of iterations =  2.0

     total energy              =   -1307.84276215 Ry
     estimated scf accuracy    <       2.64723792 Ry

[...]

     total energy              =   -1308.99500768 Ry
     estimated scf accuracy    <       0.00000004 Ry

     iteration # 11     ecut=   100.00 Ry     beta= 0.70
     Davidson diagonalization with overlap

     ethr =  2.71E-11,  avg # of iterations =  3.0

     End of self-consistent calculation

          k = 0.0833 0.1443 0.0332 ( 29725 PWs)   bands (ev):

   -20.7861 -20.5588 -20.4750 -19.9784 -19.8850 -19.6687 -19.6202 -19.6192
   -19.6006 -19.5827 -19.4955 -19.4615 -19.4453 -19.4093 -19.2992 -19.2759
   -19.2699 -19.2437  -5.7636  -5.1809  -4.9799  -3.9637  -3.8127  -3.6585
    -3.5253  -3.3231  -3.2571  -3.1289  -2.9892  -2.8168  -2.2624  -2.0984
    -2.0346  -1.9873  -1.9482  -1.9077  -1.9000  -1.8142  -1.8052  -1.5209
    -1.5047  -1.4186  -1.3777  -1.2372  -1.0859  -0.9253  -0.7111  -0.4388
    -0.2641  -0.1927  -0.1707  -0.0254  -0.0211   0.0288   0.1038   0.1685
     0.1946   0.1982   0.2515   0.3109   0.3657   0.3899   0.3958   0.4902
     0.5167   0.5976   0.6172   0.6584   0.6692   0.7325   0.9134   0.9395

     occupation numbers
     1.0000   1.0000   1.0000   1.0000   1.0000   1.0000   1.0000   1.0000
     1.0000   1.0000   1.0000   1.0000   1.0000   1.0000   1.0000   1.0000
     1.0000   1.0000   1.0000   1.0000   1.0000   1.0000   1.0000   1.0000
     1.0000   1.0000   1.0000   1.0000   1.0000   1.0000   1.0000   1.0000
     1.0000   1.0000   1.0000   1.0000   1.0000   1.0000   1.0000   1.0000
     1.0000   1.0000   1.0000   1.0000   1.0000   1.0000   1.0000   1.0000
     1.0000   1.0000   1.0000   1.0000   1.0000   1.0000   1.0000   1.0000
     1.0000   1.0000   1.0000   1.0000   1.0000   1.0000   1.0000   1.0000
     1.0000   1.0000   1.0000   1.0000   1.0000   1.0000   1.0000   1.0000

[...]

          k =-0.0833-0.1443 0.0332 ( 29725 PWs)   bands (ev):

[...]

          k = 0.1667-0.3849-0.1661 ( 29744 PWs)   bands (ev):

[...]

          k =-0.4167 0.2406 0.1661 ( 29765 PWs)   bands (ev):

   -20.4173 -20.4149 -20.2260 -20.1031 -20.0517 -19.7949 -19.6935 -19.6624
   -19.6158 -19.6082 -19.5887 -19.4933 -19.4796 -19.4480 -19.3872 -19.3767
   -19.2650 -19.2140  -4.9516  -4.9005  -4.4999  -4.3539  -4.0507  -3.5510
    -3.2393  -3.0203  -2.9822  -2.8144  -2.8068  -2.8007  -2.5417  -2.4912
    -2.1865  -2.1653  -2.1376  -1.9590  -1.8237  -1.6092  -1.4801  -1.4538
    -1.2029  -1.1920  -1.1032  -1.0817  -1.0067  -0.9109  -0.9022  -0.6427
    -0.6327  -0.6111  -0.5132  -0.5036  -0.1744  -0.1657  -0.0177   0.0067
     0.0155   0.1246   0.1914   0.2698   0.2748   0.3128   0.3337   0.3719
     0.3738   0.4320   0.4710   0.5410   0.6675   0.6980   0.7805   0.8957

     occupation numbers
     1.0000   1.0000   1.0000   1.0000   1.0000   1.0000   1.0000   1.0000
     1.0000   1.0000   1.0000   1.0000   1.0000   1.0000   1.0000   1.0000
     1.0000   1.0000   1.0000   1.0000   1.0000   1.0000   1.0000   1.0000
     1.0000   1.0000   1.0000   1.0000   1.0000   1.0000   1.0000   1.0000
     1.0000   1.0000   1.0000   1.0000   1.0000   1.0000   1.0000   1.0000
     1.0000   1.0000   1.0000   1.0000   1.0000   1.0000   1.0000   1.0000
     1.0000   1.0000   1.0000   1.0000   1.0000   1.0000   1.0000   1.0000
     1.0000   1.0000   1.0000   1.0000   1.0000   1.0000   1.0000   1.0000
     1.0000   1.0000   1.0000   1.0000   1.0000   1.0000   1.0000   1.0000

     highest occupied level (ev):     0.9549

!    total energy              =   -1308.99500770 Ry

     total all-electron energy =     -6513.280665 Ry
     estimated scf accuracy    <          2.5E-09 Ry

     The total energy is the sum of the following terms:
     one-electron contribution =    -443.64754551 Ry
     hartree contribution      =     314.17246391 Ry
     xc contribution           =    -190.80144163 Ry
     ewald contribution        =    -579.70379323 Ry
     one-center paw contrib.   =    -409.01469125 Ry
      -> PAW hartree energy AE =      14.87127959 Ry
      -> PAW hartree energy PS =     -14.85563459 Ry
      -> PAW xc energy AE      =    -222.08360356 Ry
      -> PAW xc energy PS      =      14.21798684 Ry
      -> total E_H with PAW    =     314.18810892 Ry
      -> total E_XC with PAW   =    -398.66705835 Ry

     convergence has been achieved in  11 iterations

     Writing output data file ./tmp/AlF3.save/

     General routines

     Parallel routines

     PAW routines

   This run was terminated on:   5:42:33  17Jul2025

   JOB DONE.