     Program PWSCF v.6.8 starts on 16Jul2025 at 15:55:45

     R & G space division:  proc/nbgrp/npool/nimage =       4

     Reading input from AlF3.scf.in_4x4x4

     Current dimensions of program PWSCF are:
     Max number of different atomic species (ntypx) = 10
     Max number of k-points (npk) =  40000
     Max angular momentum in pseudopotentials (lmaxx) =  4
     file Al.pbe-n-kjpaw_psl.1.0.0.UPF: wavefunction(s)  3S 3P renormalized
     file F.pbe-n-kjpaw_psl.1.0.0.UPF: wavefunction(s)  2S 2P renormalized
     Found symmetry operation: I + ( -0.3333  0.3333  0.3333)
     This is a supercell, fractional translations are disabled
     Message from routine setup:
     using ibrav=0 with symmetry is DISCOURAGED, use correct ibrav instead

     Subspace diagonalization in iterative solution of the eigenvalue problem:
     a serial algorithm will be used

     Using Slab Decomposition

     bravais-lattice index     =            0
     lattice parameter (alat)  =       9.3253  a.u.
     unit-cell volume          =    1761.8156 (a.u.)^3
     number of atoms/cell      =           24
     number of atomic types    =            2
     number of electrons       =       144.00
     number of Kohn-Sham states=           72
     kinetic-energy cutoff     =     100.0000  Ry
     charge density cutoff     =     800.0000  Ry
     scf convergence threshold =      1.0E-08
     mixing beta               =       0.7000
     number of iterations used =            8  plain     mixing
     Exchange-correlation= SLA  PW   PBX  PBC
                           (   1   4   3   4   0   0   0)

     celldm(1)=   9.325347  celldm(2)=   0.000000  celldm(3)=   0.000000
     celldm(4)=   0.000000  celldm(5)=   0.000000  celldm(6)=   0.000000

     crystal axes: (cart. coord. in units of alat)
               a(1) = (   1.000000   0.000000   0.000000 )
               a(2) = (  -0.500000   0.866025   0.000000 )
               a(3) = (   0.000000   0.000000   2.508620 )

     reciprocal axes: (cart. coord. in units 2 pi/alat)
               b(1) = (  1.000000  0.577350 -0.000000 )
               b(2) = (  0.000000  1.154701  0.000000 )
               b(3) = (  0.000000 -0.000000  0.398626 )

     PseudoPot. # 1 for Al read from file:
     ../../Pseudo/Al.pbe-n-kjpaw_psl.1.0.0.UPF
     MD5 check sum: 52edf3c3f0a11d3bd4e10b4aee4665d0
     Pseudo is Projector augmented-wave + core cor, Zval =  3.0
     Generated using &quot;atomic&quot; code by A. Dal Corso  v.6.3
     Shape of augmentation charge: PSQ
     Using radial grid of 1135 points,  6 beta functions with:
                l(1) =   0
                l(2) =   0
                l(3) =   1
                l(4) =   1
                l(5) =   2
                l(6) =   2
     Q(r) pseudized with 0 coefficients

     PseudoPot. # 2 for F  read from file:
     ../../Pseudo/F.pbe-n-kjpaw_psl.1.0.0.UPF
     MD5 check sum: 3189b5d740a3f1e0650252e1c324aeb8
     Pseudo is Projector augmented-wave + core cor, Zval =  7.0
     Generated using &quot;atomic&quot; code by A. Dal Corso  v.6.3
     Shape of augmentation charge: PSQ
     Using radial grid of 1105 points,  4 beta functions with:
                l(1) =   0
                l(2) =   0
                l(3) =   1
                l(4) =   1
     Q(r) pseudized with 0 coefficients

     atomic species   valence    mass     pseudopotential
        Al             3.00    26.98154     Al( 1.00)
        F              7.00    18.99840     F ( 1.00)

      6 Sym. Ops., with inversion, found

                                    s                        frac. trans.

      isym =  1     identity

 cryst.   s( 1) = (     1          0          0      )
                  (     0          1          0      )
                  (     0          0          1      )

 cart.    s( 1) = (  1.0000000  0.0000000  0.0000000 )
                  (  0.0000000  1.0000000  0.0000000 )
                  (  0.0000000  0.0000000  1.0000000 )

      isym =  2     120 deg rotation - cryst. axis [0,0,1]

[...]

      isym =  3     120 deg rotation - cryst. axis [0,0,-1]

[...]

      isym =  4     inversion

[...]

      isym =  5     inv. 120 deg rotation - cryst. axis [0,0,1]

[...]

      isym =  6     inv. 120 deg rotation - cryst. axis [0,0,-1]

 cryst.   s( 6) = (     1          1          0      )
                  (    -1          0          0      )
                  (     0          0         -1      )

 cart.    s( 6) = (  0.5000000 -0.8660254  0.0000000 )
                  (  0.8660254  0.5000000  0.0000000 )
                  (  0.0000000  0.0000000 -1.0000000 )

   Cartesian axes

     site n.     atom                  positions (alat units)
         1           Al  tau(   1) = (   0.0000000   0.0000000   0.0000000  )
         2           Al  tau(   2) = (   0.0000000   0.0000000   1.2543099  )
         3           Al  tau(   3) = (   0.5000000   0.2886751   0.8362066  )
         4           Al  tau(   4) = (   0.5000000   0.2886751   2.0905165  )
         5           Al  tau(   5) = (   0.0000000   0.5773503   1.6724132  )
         6           Al  tau(   6) = (   0.0000000   0.5773503   0.4181033  )
         7           F   tau(   7) = (   0.4252100   0.0000000   0.6271549  )
         8           F   tau(   8) = (  -0.2126050   0.3682427   0.6271549  )
         9           F   tau(   9) = (   0.2873950   0.4977827   0.6271549  )
        10           F   tau(  10) = (   0.5747900   0.0000000   1.8814648  )
        11           F   tau(  11) = (  -0.2873950   0.4977827   1.8814648  )
        12           F   tau(  12) = (   0.2126050   0.3682427   1.8814648  )
        13           F   tau(  13) = (  -0.0747900   0.2886751   1.4633615  )
        14           F   tau(  14) = (   0.2873950   0.6569178   1.4633615  )
        15           F   tau(  15) = (  -0.2126050   0.7864579   1.4633615  )
        16           F   tau(  16) = (   0.0747900   0.2886751   0.2090516  )
        17           F   tau(  17) = (   0.2126050   0.7864579   0.2090516  )
        18           F   tau(  18) = (  -0.2873950   0.6569178   0.2090516  )
        19           F   tau(  19) = (   0.4252100   0.5773503   2.2995681  )
        20           F   tau(  20) = (   0.2873950   0.0795675   2.2995681  )
        21           F   tau(  21) = (   0.7873950   0.2091076   2.2995681  )
        22           F   tau(  22) = (   0.5747900   0.5773503   1.0452582  )
        23           F   tau(  23) = (   0.2126050   0.2091076   1.0452582  )
        24           F   tau(  24) = (   0.7126050   0.0795675   1.0452582  )

   Crystallographic axes

     site n.     atom                  positions (cryst. coord.)
         1           Al  tau(   1) = (  0.0000000  0.0000000  0.0000000  )
         2           Al  tau(   2) = (  0.0000000  0.0000000  0.5000000  )
         3           Al  tau(   3) = (  0.6666667  0.3333333  0.3333333  )
         4           Al  tau(   4) = (  0.6666667  0.3333333  0.8333333  )
         5           Al  tau(   5) = (  0.3333333  0.6666667  0.6666667  )
         6           Al  tau(   6) = (  0.3333333  0.6666667  0.1666667  )
         7           F   tau(   7) = (  0.4252100  0.0000000  0.2500000  )
         8           F   tau(   8) = (  0.0000000  0.4252100  0.2500000  )
         9           F   tau(   9) = (  0.5747900  0.5747900  0.2500000  )
        10           F   tau(  10) = (  0.5747900  0.0000000  0.7500000  )
        11           F   tau(  11) = ( -0.0000000  0.5747900  0.7500000  )
        12           F   tau(  12) = (  0.4252100  0.4252100  0.7500000  )
        13           F   tau(  13) = (  0.0918767  0.3333333  0.5833333  )
        14           F   tau(  14) = (  0.6666667  0.7585433  0.5833333  )
        15           F   tau(  15) = (  0.2414567  0.9081233  0.5833333  )
        16           F   tau(  16) = (  0.2414567  0.3333333  0.0833333  )
        17           F   tau(  17) = (  0.6666667  0.9081233  0.0833333  )
        18           F   tau(  18) = (  0.0918767  0.7585433  0.0833333  )
        19           F   tau(  19) = (  0.7585433  0.6666667  0.9166667  )
        20           F   tau(  20) = (  0.3333333  0.0918767  0.9166667  )
        21           F   tau(  21) = (  0.9081233  0.2414567  0.9166667  )
        22           F   tau(  22) = (  0.9081233  0.6666667  0.4166667  )
        23           F   tau(  23) = (  0.3333333  0.2414567  0.4166667  )
        24           F   tau(  24) = (  0.7585433  0.0918767  0.4166667  )

     number of k points=    32
                       cart. coord. in units 2pi/alat
        k(    1) = (   0.1250000   0.2165064   0.0498282), wk =   0.0625000
        k(    2) = (   0.1250000   0.2165064   0.1494846), wk =   0.0625000
        k(    3) = (   0.1250000   0.5051815   0.0498282), wk =   0.0625000
        k(    4) = (   0.1250000   0.5051815   0.1494846), wk =   0.0625000
        k(    5) = (   0.1250000  -0.3608439   0.0498282), wk =   0.0625000
        k(    6) = (   0.1250000  -0.3608439   0.1494846), wk =   0.0625000
        k(    7) = (   0.1250000  -0.0721688   0.0498282), wk =   0.0625000
        k(    8) = (   0.1250000  -0.0721688   0.1494846), wk =   0.0625000
        k(    9) = (   0.3750000   0.6495191   0.0498282), wk =   0.0625000
        k(   10) = (   0.3750000   0.6495191   0.1494846), wk =   0.0625000
        k(   11) = (   0.3750000  -0.2165064   0.0498282), wk =   0.0625000
        k(   12) = (   0.3750000  -0.2165064   0.1494846), wk =   0.0625000
        k(   13) = (  -0.1250000  -0.2165064   0.0498282), wk =   0.0625000
        k(   14) = (  -0.1250000  -0.2165064   0.1494846), wk =   0.0625000
        k(   15) = (  -0.1250000  -0.5051815   0.0498282), wk =   0.0625000
        k(   16) = (  -0.1250000   0.5051815  -0.0498282), wk =   0.0625000
        k(   17) = (  -0.5000000   0.1443376  -0.0498282), wk =   0.0625000
        k(   18) = (  -0.1250000  -0.5051815   0.1494846), wk =   0.0625000
        k(   19) = (  -0.1250000   0.5051815  -0.1494846), wk =   0.0625000
        k(   20) = (  -0.5000000   0.1443376  -0.1494846), wk =   0.0625000
        k(   21) = (  -0.1250000   0.3608439   0.0498282), wk =   0.0625000
        k(   22) = (  -0.1250000  -0.3608439  -0.0498282), wk =   0.0625000
        k(   23) = (   0.2500000  -0.2886751  -0.0498282), wk =   0.0625000
        k(   24) = (  -0.1250000   0.3608439   0.1494846), wk =   0.0625000
        k(   25) = (  -0.1250000  -0.3608439  -0.1494846), wk =   0.0625000
        k(   26) = (   0.2500000  -0.2886751  -0.1494846), wk =   0.0625000
        k(   27) = (  -0.1250000   0.0721688   0.0498282), wk =   0.0625000
        k(   28) = (  -0.1250000   0.0721688   0.1494846), wk =   0.0625000
        k(   29) = (  -0.3750000  -0.6495191   0.0498282), wk =   0.0625000
        k(   30) = (  -0.3750000  -0.6495191   0.1494846), wk =   0.0625000
        k(   31) = (  -0.3750000   0.2165064   0.0498282), wk =   0.0625000
        k(   32) = (  -0.3750000   0.2165064   0.1494846), wk =   0.0625000

                       cryst. coord.
        k(    1) = (   0.1250000   0.1250000   0.1250000), wk =   0.0625000
        k(    2) = (   0.1250000   0.1250000   0.3750000), wk =   0.0625000
        k(    3) = (   0.1250000   0.3750000   0.1250000), wk =   0.0625000
        k(    4) = (   0.1250000   0.3750000   0.3750000), wk =   0.0625000
        k(    5) = (   0.1250000  -0.3750000   0.1250000), wk =   0.0625000
        k(    6) = (   0.1250000  -0.3750000   0.3750000), wk =   0.0625000
        k(    7) = (   0.1250000  -0.1250000   0.1250000), wk =   0.0625000
        k(    8) = (   0.1250000  -0.1250000   0.3750000), wk =   0.0625000
        k(    9) = (   0.3750000   0.3750000   0.1250000), wk =   0.0625000
        k(   10) = (   0.3750000   0.3750000   0.3750000), wk =   0.0625000
        k(   11) = (   0.3750000  -0.3750000   0.1250000), wk =   0.0625000
        k(   12) = (   0.3750000  -0.3750000   0.3750000), wk =   0.0625000
        k(   13) = (  -0.1250000  -0.1250000   0.1250000), wk =   0.0625000
        k(   14) = (  -0.1250000  -0.1250000   0.3750000), wk =   0.0625000
        k(   15) = (  -0.1250000  -0.3750000   0.1250000), wk =   0.0625000
        k(   16) = (  -0.1250000   0.5000000  -0.1250000), wk =   0.0625000
        k(   17) = (  -0.5000000   0.3750000  -0.1250000), wk =   0.0625000
        k(   18) = (  -0.1250000  -0.3750000   0.3750000), wk =   0.0625000
        k(   19) = (  -0.1250000   0.5000000  -0.3750000), wk =   0.0625000
        k(   20) = (  -0.5000000   0.3750000  -0.3750000), wk =   0.0625000
        k(   21) = (  -0.1250000   0.3750000   0.1250000), wk =   0.0625000
        k(   22) = (  -0.1250000  -0.2500000  -0.1250000), wk =   0.0625000
        k(   23) = (   0.2500000  -0.3750000  -0.1250000), wk =   0.0625000
        k(   24) = (  -0.1250000   0.3750000   0.3750000), wk =   0.0625000
        k(   25) = (  -0.1250000  -0.2500000  -0.3750000), wk =   0.0625000
        k(   26) = (   0.2500000  -0.3750000  -0.3750000), wk =   0.0625000
        k(   27) = (  -0.1250000   0.1250000   0.1250000), wk =   0.0625000
        k(   28) = (  -0.1250000   0.1250000   0.3750000), wk =   0.0625000
        k(   29) = (  -0.3750000  -0.3750000   0.1250000), wk =   0.0625000
        k(   30) = (  -0.3750000  -0.3750000   0.3750000), wk =   0.0625000
        k(   31) = (  -0.3750000   0.3750000   0.1250000), wk =   0.0625000
        k(   32) = (  -0.3750000   0.3750000   0.3750000), wk =   0.0625000

     Initial potential from superposition of free atoms

     starting charge  143.98625, renormalised to  144.00000
     Starting wfcs are   96 randomized atomic wfcs
     Checking if some PAW data can be deallocated...

     Self-consistent Calculation

     iteration #  1     ecut=   100.00 Ry     beta= 0.70
     Davidson diagonalization with overlap

     ethr =  1.00E-02,  avg # of iterations =  2.0

     total energy              =   -1307.84154138 Ry
     estimated scf accuracy    <       2.64858390 Ry

[...]

     total energy              =   -1308.99500818 Ry
     estimated scf accuracy    <       0.00000004 Ry

     iteration # 11     ecut=   100.00 Ry     beta= 0.70
     Davidson diagonalization with overlap

     ethr =  2.72E-11,  avg # of iterations =  3.0

     End of self-consistent calculation

          k = 0.1250 0.2165 0.0498 ( 29732 PWs)   bands (ev):

   -20.7239 -20.5276 -20.4083 -19.9884 -19.8669 -19.7287 -19.6535 -19.6411
   -19.6270 -19.5541 -19.5114 -19.4921 -19.4533 -19.4358 -19.3083 -19.2894
   -19.2595 -19.2519  -5.6191  -5.1186  -4.8326  -3.9753  -3.7987  -3.7309
    -3.4492  -3.2628  -3.2296  -3.1316  -2.9401  -2.6870  -2.4160  -2.1767
    -2.0172  -1.9748  -1.9276  -1.8812  -1.8484  -1.7566  -1.7476  -1.6456
    -1.4712  -1.4507  -1.3155  -1.1532  -1.0986  -0.8836  -0.8207  -0.4434
    -0.3192  -0.2371  -0.1068  -0.0870  -0.0731  -0.0678   0.0355   0.0843
     0.0844   0.1755   0.2494   0.2673   0.3144   0.3419   0.3854   0.4487
     0.4947   0.5339   0.6076   0.6114   0.6778   0.7633   0.8528   0.9101

     occupation numbers
     1.0000   1.0000   1.0000   1.0000   1.0000   1.0000   1.0000   1.0000
     1.0000   1.0000   1.0000   1.0000   1.0000   1.0000   1.0000   1.0000
     1.0000   1.0000   1.0000   1.0000   1.0000   1.0000   1.0000   1.0000
     1.0000   1.0000   1.0000   1.0000   1.0000   1.0000   1.0000   1.0000
     1.0000   1.0000   1.0000   1.0000   1.0000   1.0000   1.0000   1.0000
     1.0000   1.0000   1.0000   1.0000   1.0000   1.0000   1.0000   1.0000
     1.0000   1.0000   1.0000   1.0000   1.0000   1.0000   1.0000   1.0000
     1.0000   1.0000   1.0000   1.0000   1.0000   1.0000   1.0000   1.0000
     1.0000   1.0000   1.0000   1.0000   1.0000   1.0000   1.0000   1.0000

[...]

          k =-0.1250-0.2165 0.0498 ( 29732 PWs)   bands (ev):

[...]

          k = 0.2500-0.2887-0.1495 ( 29771 PWs)   bands (ev):

[...]

          k =-0.3750 0.2165 0.1495 ( 29750 PWs)   bands (ev):

   -20.4898 -20.4569 -20.1814 -20.1187 -20.0250 -19.7415 -19.7000 -19.6645
   -19.6244 -19.5955 -19.5780 -19.5145 -19.5001 -19.4186 -19.3644 -19.3546
   -19.2852 -19.2100  -5.1020  -4.9889  -4.4038  -4.2186  -4.1912  -3.4608
    -3.2825  -3.1316  -2.9556  -2.9365  -2.9033  -2.8118  -2.4420  -2.4058
    -2.1753  -2.0813  -2.0190  -1.9359  -1.8666  -1.7048  -1.5250  -1.4397
    -1.3332  -1.2915  -1.1773  -1.1207  -0.9947  -0.8806  -0.8635  -0.5370
    -0.5132  -0.4929  -0.4231  -0.4156  -0.2305  -0.1768  -0.0652  -0.0608
    -0.0547   0.1725   0.2387   0.3008   0.3258   0.3504   0.3589   0.3731
     0.4009   0.4270   0.4328   0.5539   0.7036   0.7365   0.7400   0.9020

     occupation numbers
     1.0000   1.0000   1.0000   1.0000   1.0000   1.0000   1.0000   1.0000
     1.0000   1.0000   1.0000   1.0000   1.0000   1.0000   1.0000   1.0000
     1.0000   1.0000   1.0000   1.0000   1.0000   1.0000   1.0000   1.0000
     1.0000   1.0000   1.0000   1.0000   1.0000   1.0000   1.0000   1.0000
     1.0000   1.0000   1.0000   1.0000   1.0000   1.0000   1.0000   1.0000
     1.0000   1.0000   1.0000   1.0000   1.0000   1.0000   1.0000   1.0000
     1.0000   1.0000   1.0000   1.0000   1.0000   1.0000   1.0000   1.0000
     1.0000   1.0000   1.0000   1.0000   1.0000   1.0000   1.0000   1.0000
     1.0000   1.0000   1.0000   1.0000   1.0000   1.0000   1.0000   1.0000

     highest occupied level (ev):     0.9466

!    total energy              =   -1308.99500819 Ry

     total all-electron energy =     -6513.280666 Ry
     estimated scf accuracy    <          6.1E-10 Ry

     The total energy is the sum of the following terms:
     one-electron contribution =    -443.64799106 Ry
     hartree contribution      =     314.17303552 Ry
     xc contribution           =    -190.80156751 Ry
     ewald contribution        =    -579.70379323 Ry
     one-center paw contrib.   =    -409.01469192 Ry
      -> PAW hartree energy AE =      14.87121001 Ry
      -> PAW hartree energy PS =     -14.85556526 Ry
      -> PAW xc energy AE      =    -222.08357101 Ry
      -> PAW xc energy PS      =      14.21796090 Ry
      -> total E_H with PAW    =     314.18868028 Ry
      -> total E_XC with PAW   =    -398.66717762 Ry

     convergence has been achieved in  11 iterations

     Writing output data file ./tmp/AlF3.save/

     General routines

     Parallel routines

     PAW routines

   This run was terminated on:  18:54: 2  16Jul2025

   JOB DONE.